16
Properties=species:S:1:pos:R:3:forces:R:3 energy:=T -17.812259918842=T gnorm:=T 0.000930443810=T xtb:=T 6.7.1=T (edcfbbe)=T energy=-6381.212766063772 free_energy=-6381.212766063772 pbc="F F F"
C       -0.65176396       1.29889612      -0.37799541       0.00000305      -0.00000036      -0.00000445
C       -0.05103430       0.12310072      -0.25116320       0.00000178      -0.00001142       0.00000515
C        1.38049099      -0.05519025      -0.11646179       0.00000073       0.00002544      -0.00001244
C        2.27310038       0.88705259      -0.39170551       0.00000712      -0.00000290       0.00000788
C        1.30250891       1.39419284       2.62579227       0.00000259       0.00003101      -0.00000027
C        0.12429534       0.80136280       2.78178799      -0.00005709      -0.00000127      -0.00001211
H       -0.10966419       2.22740605      -0.41446442       0.00000434       0.00000368       0.00000004
H       -1.72515631       1.35890213      -0.44777459      -0.00001105       0.00000020       0.00000440
H       -0.66570528      -0.76398874      -0.22841944       0.00000064       0.00000822      -0.00000327
H        1.73656469      -1.02805246       0.18870615       0.00000787      -0.00002082       0.00000692
H        3.32708110       0.70204669      -0.26827132      -0.00001225       0.00000107      -0.00000276
H        1.98628954       1.86062486      -0.74692797      -0.00000129      -0.00000320      -0.00000101
H        2.20262387       0.82656522       2.48706191       0.00002701      -0.00004294      -0.00000177
H        1.37189692       2.46878585       2.61631215       0.00000681       0.00002671       0.00000198
H       -0.77009434       1.38266538       2.93579275       0.00000218      -0.00001847       0.00000393
H        0.02856664      -0.26989125       2.80773046       0.00001755       0.00000507       0.00000779
