90
(H2O)30 vacuum blob start, 90 atoms, spacing=3.4 A seed=0
O       -1.58666667      -4.76000000      -4.87333333
H       -2.06105944      -4.78159966      -5.70580886
H       -0.76776804      -4.30538226      -5.07645477
O       -1.58666667      -4.76000000      -1.47333333
H       -2.27297352      -4.22161633      -1.07627352
H       -1.17767536      -4.18563482      -2.12245683
O       -1.58666667      -4.76000000       1.92666667
H       -0.88443794      -4.72982676       1.27513390
H       -1.92407046      -5.65545791       1.87333405
O       -1.58666667      -4.76000000       5.32666667
H       -0.77275771      -4.30039118       5.11490618
H       -1.44875139      -5.09393091       6.21436035
O       -1.58666667      -1.36000000      -4.87333333
H       -2.37437627      -1.81698098      -4.57464867
H       -1.58590057      -0.53783906      -4.38080784
O       -1.58666667      -1.36000000      -1.47333333
H       -0.90800278      -1.97798287      -1.74909240
H       -1.72294040      -0.79779187      -2.23745508
O       -1.58666667      -1.36000000       1.92666667
H       -2.18275650      -1.65749672       2.61565373
H       -1.79010648      -0.42956515       1.81973774
O       -1.58666667      -1.36000000       5.32666667
H       -1.67852561      -1.22787400       4.38187292
H       -0.75521536      -0.93756539       5.54750208
O       -1.58666667       2.04000000      -4.87333333
H       -0.98335454       2.61289074      -4.39757999
H       -1.43302008       2.24503693      -5.79685006
O       -1.58666667       2.04000000      -1.47333333
H       -2.39163477       1.93111953      -0.96470581
H       -1.28584942       2.92426625      -1.25859454
O       -1.58666667       2.04000000       1.92666667
H       -1.50702033       2.84479307       2.44095758
H       -1.85707753       2.33784616       1.05678381
O       -1.58666667       2.04000000       5.32666667
H       -2.34657677       2.61769959       5.24104904
H       -0.91468591       2.58773066       5.73527840
O       -1.58666667       5.44000000      -4.87333333
H       -1.36475171       4.54481977      -5.13397996
H       -2.14677638       5.33291154      -4.10304785
O       -1.58666667       5.44000000      -1.47333333
H       -1.91506664       4.60404448      -1.80779167
H       -0.98118276       5.74699187      -2.14985073
O       -1.58666667       5.44000000       1.92666667
H       -2.39380946       4.99723838       1.66018360
H       -1.68692421       6.33603046       1.60169221
O       -1.58666667       5.44000000       5.32666667
H       -1.89874311       4.53588317       5.26574364
H       -1.36161668       5.67654983       4.42559661
O        1.81333333      -4.76000000      -4.87333333
H        1.16334990      -4.17423127      -5.26439228
H        2.55856144      -4.19129019      -4.67399749
O        1.81333333      -4.76000000      -1.47333333
H        2.14436838      -4.38233643      -2.28961551
H        0.87804714      -4.55079349      -1.47504508
O        1.81333333      -4.76000000       1.92666667
H        1.86338278      -5.66045712       1.60231719
H        2.72587555      -4.50929972       2.07814815
O        1.81333333      -4.76000000       5.32666667
H        1.83491995      -4.96582908       6.26245455
H        2.60329884      -4.23800400       5.17832505
O        1.81333333      -1.36000000      -4.87333333
H        1.84067771      -0.97887939      -3.99439652
H        2.60837739      -1.03601766      -5.29932742
O        1.81333333      -1.36000000      -1.47333333
H        1.83773812      -1.39011775      -0.51571760
H        1.83164972      -0.42516295      -1.68374903
O        1.81333333      -1.36000000       1.92666667
H        2.48672599      -1.62239546       2.55612796
H        2.26868491      -0.77496074       1.31928329
O        1.81333333      -1.36000000       5.32666667
H        1.10199001      -1.91318685       5.00031479
H        1.42718153      -0.88363080       6.06320569
O        1.81333333       2.04000000      -4.87333333
H        1.36284418       2.80617445      -4.51477121
H        2.60748646       2.39573948      -5.27495604
O        1.81333333       2.04000000      -1.47333333
H        1.27184890       1.44272592      -1.99158890
H        1.23985239       2.32494059      -0.76027021
O        1.81333333       2.04000000       1.92666667
H        1.65476197       2.94944351       1.66918231
H        0.96175894       1.61152221       1.82788213
O        1.81333333       2.04000000       5.32666667
H        2.76064476       2.08191050       5.46586124
H        1.43635462       2.33827409       6.15579282
O        1.81333333       5.44000000      -4.87333333
H        0.90075161       5.16760612      -4.98069594
H        2.28793324       4.62473735      -4.70412253
O        1.81333333       5.44000000      -1.47333333
H        2.41193133       6.17205325      -1.31741980
H        2.25514123       4.68304879      -1.08556896
