16
Properties=species:S:1:pos:R:3:forces:R:3:charge:R:1 energy:=T -17.834185856637=T gnorm:=T 0.000899460021=T xtb:=T 6.7.1=T (edcfbbe)=T energy=-484.6962658328628 free_energy=-484.6962658328628 dipole="1.1594583188727717e-05 0.05315862328812601 0.017312511080095853" pbc="F F F"
C       -0.70010571       1.01027754       0.07318493      -0.00001862       0.00001699      -0.00005003      -0.07399092
C        0.02696595      -0.07961374      -0.26888303      -0.00004718      -0.00000470       0.00000165      -0.03303752
C        1.44289085      -0.07943054      -0.26910737       0.00002187      -0.00000339      -0.00000930      -0.03303815
C        2.16977582       1.01064290       0.07279500      -0.00000717       0.00000563      -0.00004646      -0.07398436
C        1.41053501       1.24677496       2.24721243       0.00000246       0.00042370       0.00024941      -0.07703396
C        0.05987108       1.24692164       2.24746206       0.00001686      -0.00041538      -0.00014339      -0.07704423
H       -0.31249050       2.00489105      -0.04697650       0.00000317       0.00000244       0.00001471       0.04777249
H       -1.77004968       0.93996466       0.18427516      -0.00001797       0.00001076      -0.00001384       0.03455521
H       -0.46585168      -1.03970174      -0.34813158      -0.00000987       0.00001231       0.00000318       0.02781761
H        1.93594194      -1.03938377      -0.34852899      -0.00002106      -0.00001289       0.00000606       0.02781721
H        3.23977572       0.94061642       0.18353282       0.00002004      -0.00002273      -0.00001849       0.03455689
H        1.78186117       2.00515788      -0.04723208       0.00000744      -0.00001914      -0.00000161       0.04777431
H        1.96074042       0.35475476       2.49013020      -0.00000222      -0.00005140      -0.00000666       0.03482506
H        1.96550001       2.16867585       2.26970850       0.00002741      -0.00005488      -0.00000909       0.03909543
H       -0.49492204       2.16892008       2.27000533       0.00002330       0.00005519       0.00001600       0.03908727
H       -0.49043837       0.35501061       2.49055312       0.00000154       0.00005746       0.00000784       0.03482767
