9
 energy: -15.235023596727 gnorm: 0.000387753789 xtb: 6.7.1pre (5071a88)
O            1.50389610827314       -0.38412604308150        0.84150916308915
H            1.05297375802038        0.47307921111837        0.75898636637754
H            2.23189643751661       -0.36977565888613        0.21858753970810
O           -0.43273971484156        1.51201957136216        0.15353539562745
H           -0.65597355548982        1.92835841604928       -0.67983693707011
H           -0.92153764019626        0.66858638811860        0.17746977420858
O           -1.10745542918243       -1.15997348764717        0.36227697065178
H           -0.14758525586613       -1.18357486227845        0.52752990033458
H           -1.52347470804432       -1.48459353456160        1.16241966710667
