60
(H2O)20 vacuum blob start, 60 atoms, spacing=3.4 A seed=0
O       -2.21000000      -3.06000000      -3.23000000
H       -2.68439278      -3.08159966      -4.06247553
H       -1.39110138      -2.60538226      -3.43312143
O       -2.21000000      -3.06000000       0.17000000
H       -2.89630685      -2.52161633       0.56705981
H       -1.80100869      -2.48563482      -0.47912350
O       -2.21000000      -3.06000000       3.57000000
H       -1.50777127      -3.02982676       2.91846723
H       -2.54740379      -3.95545791       3.51666739
O       -2.21000000       0.34000000      -3.23000000
H       -1.39609104       0.79960882      -3.44176049
H       -2.07208472       0.00606909      -2.34230631
O       -2.21000000       0.34000000       0.17000000
H       -2.99770960      -0.11698098       0.46868466
H       -2.20923391       1.16216094       0.66252549
O       -2.21000000       0.34000000       3.57000000
H       -1.53133612      -0.27798287       3.29424093
H       -2.34627373       0.90220813       2.80587825
O       -2.21000000       3.74000000      -3.23000000
H       -2.80608983       3.44250328      -2.54101294
H       -2.41343981       4.67043485      -3.33692893
O       -2.21000000       3.74000000       0.17000000
H       -2.30185894       3.87212600      -0.77479374
H       -1.37854869       4.16243461       0.39083541
O       -2.21000000       3.74000000       3.57000000
H       -1.60668787       4.31289074       4.04575334
H       -2.05635341       3.94503693       2.64648327
O        1.19000000      -3.06000000      -3.23000000
H        0.38503190      -3.16888047      -2.72137248
H        1.49081725      -2.17573375      -3.01526121
O        1.19000000      -3.06000000       0.17000000
H        1.26964633      -2.25520693       0.68429091
H        0.91958913      -2.76215384      -0.69988286
O        1.19000000      -3.06000000       3.57000000
H        0.43008989      -2.48230041       3.48438237
H        1.86198076      -2.51226934       3.97861173
O        1.19000000       0.34000000      -3.23000000
H        1.41191496      -0.55518023      -3.49064663
H        0.62989028       0.23291154      -2.45971452
O        1.19000000       0.34000000       0.17000000
H        0.86160003      -0.49595552      -0.16445834
H        1.79548391       0.64699187      -0.50651740
O        1.19000000       0.34000000       3.57000000
H        0.38285721      -0.10276162       3.30351694
H        1.08974246       1.23603046       3.24502554
O        1.19000000       3.74000000      -3.23000000
H        0.87792355       2.83588317      -3.29092303
H        1.41504998       3.97654983      -4.13107006
O        1.19000000       3.74000000       0.17000000
H        0.54001657       4.32576873      -0.22105894
H        1.93522811       4.30870981       0.36933584
O        1.19000000       3.74000000       3.57000000
H        1.52103504       4.11766357       2.75371782
H        0.25471381       3.94920651       3.56828825
O        4.59000000      -3.06000000      -3.23000000
H        4.64004945      -3.96045712      -3.55434947
H        5.50254221      -2.80929972      -3.07851852
O        4.59000000      -3.06000000       0.17000000
H        4.61158662      -3.26582908       1.10578789
H        5.37996551      -2.53800400       0.02165838
