16
Properties=species:S:1:pos:R:3 energy:=T -17.815412885497=T gnorm:=T 0.000359351609=T xtb:=T 6.7.1=T (edcfbbe)=T pbc="F F F"
C       -0.70246584       1.01480802      -0.02339107
C        0.01543963      -0.07341530      -0.30521110
C        1.45457133      -0.07340563      -0.30521573
C        2.17246299       1.01482551      -0.02339055
C        1.40136056       1.23809875       2.36401694
C        0.06863453       1.23811354       2.36401417
H       -0.29533851       2.00815432      -0.01855177
H       -1.76998049       0.94627672       0.10335582
H       -0.49775859      -1.01927736      -0.37979592
H        1.96778266      -1.01926015      -0.37980792
H        3.23997936       0.94630818       0.10334979
H        1.76532271       2.00816656      -0.01854460
H        1.96050506       0.33525592       2.53806088
H        1.96139062       2.15725903       2.32152990
H       -0.49137493       2.15728619       2.32152106
H       -0.49053109       0.33528423       2.53806008
