16
Properties=species:S:1:pos:R:3 energy:=T -17.815412885497=T gnorm:=T 0.000359351609=T xtb:=T 6.7.1=T (edcfbbe)=T pbc="F F F"
C       -0.70929039       1.01640473      -0.05350651
C        0.01419237      -0.07472019      -0.30201696
C        1.45581894      -0.07471049      -0.30202221
C        2.17928828       1.01642254      -0.05350808
C        1.39993492       1.23810192       2.39311883
C        0.07005909       1.23811754       2.39311459
H       -0.29972787       2.00907673      -0.04405032
H       -1.77828943       0.94811534       0.06105491
H       -0.49732643      -1.02247862      -0.36443406
H        1.96735089      -1.02246145      -0.36444726
H        3.24828920       0.94814726       0.06104478
H        1.76971252       2.00908905      -0.04404288
H        1.96068054       0.33277591       2.54664956
H        1.95985044       2.15665559       2.33942406
H       -0.48983448       2.15668429       2.33941364
H       -0.49070878       0.33280569       2.54664749
