16
Properties=species:S:1:pos:R:3 energy:=T -17.815412885497=T gnorm:=T 0.000359351609=T xtb:=T 6.7.1=T (edcfbbe)=T pbc="F F F"
C       -0.70587812       1.01560638      -0.03844879
C        0.01481600      -0.07406774      -0.30361403
C        1.45519514      -0.07405806      -0.30361897
C        2.17587563       1.01562402      -0.03844931
C        1.40064774       1.23810033       2.37856788
C        0.06934681       1.23811554       2.37856438
H       -0.29753319       2.00861553      -0.03130104
H       -1.77413496       0.94719603       0.08220537
H       -0.49754251      -1.02087799      -0.37211499
H        1.96756678      -1.02086080      -0.37212759
H        3.24413428       0.94722772       0.08219728
H        1.76751762       2.00862780      -0.03129374
H        1.96059280       0.33401591       2.54235522
H        1.96062053       2.15695731       2.33047698
H       -0.49060470       2.15698524       2.33046735
H       -0.49061993       0.33404496       2.54235379
