16
Properties=species:S:1:pos:R:3 energy:=T -17.815412885497=T gnorm:=T 0.000359351609=T xtb:=T 6.7.1=T (edcfbbe)=T pbc="F F F"
C       -0.69905356       1.01400966      -0.00833335
C        0.01606326      -0.07276286      -0.30680817
C        1.45394752      -0.07275320      -0.30681249
C        2.16905035       1.01402700      -0.00833179
C        1.40207338       1.23809717       2.34946600
C        0.06792225       1.23811154       2.34946396
H       -0.29314383       2.00769311      -0.00580250
H       -1.76582602       0.94535741       0.12450627
H       -0.49797467      -1.01767673      -0.38747685
H        1.96799854      -1.01765950      -0.38748825
H        3.23582444       0.94538864       0.12450230
H        1.76312780       2.00770532      -0.00579546
H        1.96041732       0.33649593       2.53376654
H        1.96216071       2.15756075       2.31258282
H       -0.49214516       2.15758714       2.31257477
H       -0.49044225       0.33652350       2.53376637
