16
Properties=species:S:1:pos:R:3 energy:=T -17.815412885497=T gnorm:=T 0.000359351609=T xtb:=T 6.7.1=T (edcfbbe)=T pbc="F F F"
C       -0.69564129       1.01321131       0.00672437
C        0.01668689      -0.07211041      -0.30840524
C        1.45332372      -0.07210077      -0.30840925
C        2.16563770       1.01322848       0.00672698
C        1.40278620       1.23809558       2.33491505
C        0.06720997       1.23810954       2.33491375
H       -0.29094915       2.00723191       0.00694678
H       -1.76167155       0.94443810       0.14565673
H       -0.49819075      -1.01607610      -0.39515778
H        1.96821443      -1.01605885      -0.39516858
H        3.23166952       0.94446910       0.14565480
H        1.76093290       2.00724407       0.00695368
H        1.96032958       0.33773593       2.52947220
H        1.96293080       2.15786247       2.30363574
H       -0.49291538       2.15788809       2.30362848
H       -0.49035340       0.33776277       2.52947267
