16
Properties=species:S:1:pos:R:3 energy:=T -17.815412885497=T gnorm:=T 0.000359351609=T xtb:=T 6.7.1=T (edcfbbe)=T pbc="F F F"
C       -0.70706202       0.99341073      -0.00748541
C        0.04260620      -0.06395431      -0.28654703
C        1.45359173      -0.04636615      -0.33181413
C        2.20295454       1.02034595       0.01425247
C        1.37476106       1.27159503       2.38500271
C        0.06713244       1.22417652       2.34863733
H       -0.31256102       1.99577246      -0.03130213
H       -1.79525971       0.94885009       0.06865600
H       -0.51378727      -1.00617304      -0.39703275
H        1.97223678      -1.01143617      -0.38654501
H        3.25998848       0.95087816       0.14538519
H        1.78777967       1.95109249      -0.02761273
H        1.95442836       0.34569749       2.54010781
H        1.91876865       2.18494567       2.36501031
H       -0.44881179       2.13074150       2.29667456
H       -0.50433827       0.32615703       2.54444380
