16
Properties=species:S:1:pos:R:3 energy:=T -17.815412885497=T gnorm:=T 0.000359351609=T xtb:=T 6.7.1=T (edcfbbe)=T pbc="F F F"
C       -0.69171953       0.99961296      -0.04229809
C       -0.01378206      -0.13008948      -0.28390227
C        1.41731807      -0.03993232      -0.26102916
C        2.18410813       1.06200255      -0.05388568
C        1.38036320       1.26581810       2.40890722
C        0.05526521       1.24706173       2.37228352
H       -0.28433466       2.04597946      -0.07086798
H       -1.80341782       0.95924367       0.04609569
H       -0.54061315      -1.04834634      -0.33681382
H        1.95864501      -1.02038795      -0.41009697
H        3.24767499       0.94557086       0.10687493
H        1.75919374       2.04508679      -0.05389222
H        1.97407153       0.33852807       2.50501862
H        2.01024169       2.18292273       2.28455275
H       -0.48534655       2.13782085       2.29541251
H       -0.48201610       0.36791892       2.50002845
