      -----------------------------------------------------------      
     |                   =====================                   |     
     |                           x T B                           |     
     |                   =====================                   |     
     |                         S. Grimme                         |     
     |          Mulliken Center for Theoretical Chemistry        |     
     |                    University of Bonn                     |     
      -----------------------------------------------------------      

   * xtb version 6.7.1pre (5071a88) compiled by 'Marcel@Raven' on 2024-07-23

   xtb is free software: you can redistribute it and/or modify it under
   the terms of the GNU Lesser General Public License as published by
   the Free Software Foundation, either version 3 of the License, or
   (at your option) any later version.
   
   xtb is distributed in the hope that it will be useful,
   but WITHOUT ANY WARRANTY; without even the implied warranty of
   MERCHANTABILITY or FITNESS FOR A PARTICULAR PURPOSE.  See the
   GNU Lesser General Public License for more details.
   
   Cite this work as:
   * C. Bannwarth, E. Caldeweyher, S. Ehlert, A. Hansen, P. Pracht,
     J. Seibert, S. Spicher, S. Grimme, WIREs Comput. Mol. Sci., 2020, 11,
     e01493. DOI: 10.1002/wcms.1493
   
   for GFN2-xTB:
   * C. Bannwarth, S. Ehlert and S. Grimme., J. Chem. Theory Comput., 2019,
     15, 1652-1671. DOI: 10.1021/acs.jctc.8b01176
   for GFN1-xTB:
   * S. Grimme, C. Bannwarth, P. Shushkov, J. Chem. Theory Comput., 2017,
     13, 1989-2009. DOI: 10.1021/acs.jctc.7b00118
   for GFN0-xTB:
   * P. Pracht, E. Caldeweyher, S. Ehlert, S. Grimme, ChemRxiv, 2019, preprint.
     DOI: 10.26434/chemrxiv.8326202.v1
   for GFN-FF:
   * S. Spicher and S. Grimme, Angew. Chem. Int. Ed., 2020, 59, 15665-15673.
     DOI: 10.1002/anie.202004239
   
   for ALPB and GBSA implicit solvation:
   * S. Ehlert, M. Stahn, S. Spicher, S. Grimme, J. Chem. Theory Comput.,
     2021, 17, 4250-4261. DOI: 10.1021/acs.jctc.1c00471
   
   for ddCOSMO and CPCM-X implicit solvation:
   * M. Stahn, S. Ehlert, S. Grimme, J. Phys. Chem. A,
     2023, XX, XXXX-XXXX. DOI: 10.1021/acs.jpca.3c04382
   
   for DFT-D4:
   * E. Caldeweyher, C. Bannwarth and S. Grimme, J. Chem. Phys., 2017,
     147, 034112. DOI: 10.1063/1.4993215
   * E. Caldeweyher, S. Ehlert, A. Hansen, H. Neugebauer, S. Spicher,
     C. Bannwarth and S. Grimme, J. Chem. Phys., 2019, 150, 154122.
     DOI: 10.1063/1.5090222
   * E. Caldeweyher, J.-M. Mewes, S. Ehlert and S. Grimme, Phys. Chem. Chem. Phys.
     2020, 22, 8499-8512. DOI: 10.1039/D0CP00502A
   
   for sTDA-xTB:
   * S. Grimme and C. Bannwarth, J. Chem. Phys., 2016, 145, 054103.
     DOI: 10.1063/1.4959605
   
   in the mass-spec context:
   * V. Asgeirsson, C. Bauer and S. Grimme, Chem. Sci., 2017, 8, 4879.
     DOI: 10.1039/c7sc00601b
   * J. Koopman and S. Grimme, ACS Omega 2019, 4, 12, 15120-15133.
     DOI: 10.1021/acsomega.9b02011
   
   for metadynamics refer to:
   * S. Grimme, J. Chem. Theory Comput., 2019, 155, 2847-2862
     DOI: 10.1021/acs.jctc.9b00143
   
   for SPH calculations refer to:
   * S. Spicher and S. Grimme, J. Chem. Theory Comput., 2021, 17, 1701-1714
     DOI: 10.1021/acs.jctc.0c01306
   
   for ONIOM refer to:
   * C. Plett, A. Katbashev, S. Ehlert, S. Grimme, M. Bursch,
     Phys. Chem. Chem. Phys., 2023, 25, 17860-17868. DOI: 10.1039/D3CP02178E
   
   for DIPRO refer to:
   * J. Kohn, N. Gildemeister, S. Grimme, D. Fazzi, A. Hansen,
     J. Chem. Phys., 2023, just accepted.
   
   for PTB refer to:
   * S. Grimme, M. Mueller, A. Hansen, J. Chem. Phys., 2023, 158, 124111.
     DOI: 10.1063/5.0137838
   
   with help from (in alphabetical order)
   P. Atkinson, C. Bannwarth, F. Bohle, G. Brandenburg, E. Caldeweyher
   M. Checinski, S. Dohm, S. Ehlert, S. Ehrlich, I. Gerasimov, C. Hölzer
   A. Katbashev, J. Kohn, J. Koopman, C. Lavigne, S. Lehtola, F. März, M. Müller,
   F. Musil, H. Neugebauer, J. Pisarek, C. Plett, P. Pracht, F. Pultar,
   J. Seibert, P. Shushkov, S. Spicher, M. Stahn, M. Steiner, T. Strunk,
   J. Stückrath, T. Rose, and J. Unsleber
   
 * started run on 2026/07/03 at 11:11:57.734     
   ID    Z sym.   atoms
    1    8 O      1, 4
    2    1 H      2, 3, 5, 6

           -------------------------------------------------
          |                Calculation Setup                |
           -------------------------------------------------

          program call               : C:\Users\pc\Documents\Research\xtb_metadynamics\tools\xtb-6.7.1\bin\xtb.exe start.xyz --opt tight --gfn 2 --chrg 0 --uhf 0
          coordinate file            : start.xyz
          omp threads                :                    16


molecular fragmentation (1/2 indicates fragments):
111222
# atoms in fragment 1/2:     3     3
 fragment masses (1/2) :       18.02       18.02
CMA distance (Bohr)    :   5.480
constraining FC (au)   :  0.0500

           -------------------------------------------------
          |                 G F N 2 - x T B                 |
           -------------------------------------------------

        Reference                      10.1021/acs.jctc.8b01176
      * Hamiltonian:
        H0-scaling (s, p, d)           1.850000    2.230000    2.230000
        zeta-weighting                 0.500000
      * Dispersion:
        s8                             2.700000
        a1                             0.520000
        a2                             5.000000
        s9                             5.000000
      * Repulsion:
        kExp                           1.500000    1.000000
        rExp                           1.000000
      * Coulomb:
        alpha                          2.000000
        third order                    shell-resolved
        anisotropic                    true
        a3                             3.000000
        a5                             4.000000
        cn-shift                       1.200000
        cn-exp                         4.000000
        max-rad                        5.000000


          ...................................................
          :                      SETUP                      :
          :.................................................:
          :  # basis functions                  12          :
          :  # atomic orbitals                  12          :
          :  # shells                            8          :
          :  # electrons                        16          :
          :  max. iterations                   250          :
          :  Hamiltonian                  GFN2-xTB          :
          :  restarted?                      false          :
          :  GBSA solvation                  false          :
          :  PC potential                    false          :
          :  electronic temp.          300.0000000     K    :
          :  accuracy                    1.0000000          :
          :  -> integral cutoff          0.2500000E+02      :
          :  -> integral neglect         0.1000000E-07      :
          :  -> SCF convergence          0.1000000E-05 Eh   :
          :  -> wf. convergence          0.1000000E-03 e    :
          :  Broyden damping             0.4000000          :
          :  net charge                          0          :
          :  unpaired electrons                  0          :
          ...................................................

 iter      E             dE          RMSdq      gap      omega  full diag
   1    -10.1922380 -0.101922E+02  0.431E+00   12.28       0.0  T
   2    -10.1967591 -0.452111E-02  0.242E+00   11.87       1.0  T
   3    -10.1975485 -0.789461E-03  0.473E-01   11.55       1.0  T
   4    -10.1976949 -0.146395E-03  0.959E-02   11.71       1.0  T
   5    -10.1977009 -0.593038E-05  0.632E-02   11.66       1.0  T
   6    -10.1977061 -0.519189E-05  0.393E-03   11.68      10.4  T
   7    -10.1977061 -0.131437E-07  0.164E-03   11.68      24.9  T
   8    -10.1977061 -0.305512E-08  0.106E-04   11.68     386.6  T
   9    -10.1977061 -0.570743E-11  0.165E-05   11.68    2471.4  T

   *** convergence criteria satisfied after 9 iterations ***

         #    Occupation            Energy/Eh            Energy/eV
      -------------------------------------------------------------
         1        2.0000           -0.6899065             -18.7733
         2        2.0000           -0.6834947             -18.5988
         3        2.0000           -0.5897722             -16.0485
         4        2.0000           -0.5516715             -15.0117
         5        2.0000           -0.5205739             -14.1655
         6        2.0000           -0.5109009             -13.9023
         7        2.0000           -0.4511131             -12.2754
         8        2.0000           -0.4496130             -12.2346 (HOMO)
         9                         -0.0202690              -0.5515 (LUMO)
        10                          0.1482309               4.0336
        11                          0.1965807               5.3492
        12                          0.5127210              13.9518
      -------------------------------------------------------------
                  HL-Gap            0.4293440 Eh           11.6830 eV
             Fermi-level           -0.2349410 Eh           -6.3931 eV

 SCC (total)                   0 d,  0 h,  0 min,  0.004 sec
 SCC setup                      ...        0 min,  0.000 sec (  0.000%)
 Dispersion                     ...        0 min,  0.000 sec (  0.000%)
 classical contributions        ...        0 min,  0.000 sec (  0.000%)
 integral evaluation            ...        0 min,  0.001 sec ( 24.999%)
 iterations                     ...        0 min,  0.002 sec ( 50.003%)
 molecular gradient             ...        0 min,  0.001 sec ( 24.999%)
 printout                       ...        0 min,  0.000 sec (  0.000%)

         :::::::::::::::::::::::::::::::::::::::::::::::::::::
         ::                     SUMMARY                     ::
         :::::::::::::::::::::::::::::::::::::::::::::::::::::
         :: total energy             -10.126828349887 Eh    ::
         :: gradient norm              0.019198196026 Eh/a0 ::
         :: HOMO-LUMO gap             11.683044869428 eV    ::
         ::.................................................::
         :: SCC energy               -10.197706239880 Eh    ::
         :: -> isotropic ES            0.063753465675 Eh    ::
         :: -> anisotropic ES          0.006687833217 Eh    ::
         :: -> anisotropic XC         -0.001879102597 Eh    ::
         :: -> dispersion             -0.000787174071 Eh    ::
         :: repulsion energy           0.070877889992 Eh    ::
         :: add. restraining           0.000000000000 Eh    ::
         :: total charge               0.000000000000 e     ::
         :::::::::::::::::::::::::::::::::::::::::::::::::::::

      ----------------------------------------------------------- 
     |                   =====================                   |
     |                        A N C O P T                        |
     |                   =====================                   |
     |               Approximate Normal Coordinate               |
     |                Rational Function Optimizer                |
      ----------------------------------------------------------- 
      ----------------------------------------------------------- 
     |                   =====================                   |
     |                        A N C O P T                        |
     |                   =====================                   |
     |               Approximate Normal Coordinate               |
     |                Rational Function Optimizer                |
      ----------------------------------------------------------- 

          ...................................................
          :                      SETUP                      :
          :.................................................:
          :   optimization level             tight          :
          :   max. optcycles                   200          :
          :   ANC micro-cycles                  20          :
          :   degrees of freedom                12          :
          :.................................................:
          :   RF solver                   davidson          :
          :   write xtbopt.log                true          :
          :   linear?                        false          :
          :   energy convergence         0.1000000E-05 Eh   :
          :   grad. convergence          0.8000000E-03 Eh/α :
          :   maxmium RF displ.          1.0000000          :
          :   Hlow (freq-cutoff)         0.1000000E-01      :
          :   Hmax (freq-cutoff)         5.0000000          :
          :   S6 in model hess.         20.0000000          :
          ...................................................

generating ANC from exact Hessian ...
Using Lindh-Hessian (1995)
 Shifting diagonal of input Hessian by   9.308978640407767E-003
 Lowest  eigenvalues of input Hessian
    0.000000    0.000000    0.000000    0.000000    0.000000    0.000000
    0.010000    0.010062    0.010614    0.011251    0.011371    0.011824
    0.308445    0.310674    1.246965    1.247968    1.413846    1.417934
 Highest eigenvalues
    0.308445    0.310674    1.246965    1.247968    1.413846    1.417934
 

........................................................................
.............................. CYCLE    1 ..............................
........................................................................

 iter      E             dE          RMSdq      gap      omega  full diag
   1    -10.1977061 -0.101977E+02  0.684E-06   11.68       0.0  T
   2    -10.1977061 -0.408562E-13  0.395E-06   11.68   10330.0  T
   3    -10.1977061  0.355271E-14  0.120E-06   11.68   34012.8  T
     SCC iter.                  ...        0 min,  0.001 sec
     gradient                   ...        0 min,  0.000 sec
 * total energy  :   -10.1268283 Eh     change       -0.2362555E-12 Eh
   gradient norm :     0.0191981 Eh/α   predicted     0.0000000E+00 (-100.00%)
   displ. norm   :     0.7284003 α      lambda       -0.1223549E-01
   maximum displ.:     0.6852971 α      in ANC's #3, #4, #10, ...

........................................................................
.............................. CYCLE    2 ..............................
........................................................................

 iter      E             dE          RMSdq      gap      omega  full diag
   1    -10.2052670 -0.102053E+02  0.135E-01   12.42       0.0  T
   2    -10.2052722 -0.519461E-05  0.806E-02   12.43       1.0  T
   3    -10.2052735 -0.131307E-05  0.149E-02   12.44       2.7  T
   4    -10.2052736 -0.116145E-06  0.336E-03   12.44      12.1  T
   5    -10.2052736 -0.473914E-08  0.636E-04   12.44      64.2  T
   6    -10.2052736 -0.144270E-09  0.246E-04   12.44     165.7  T
     SCC iter.                  ...        0 min,  0.001 sec
     gradient                   ...        0 min,  0.000 sec
 * total energy  :   -10.1343788 Eh     change       -0.7550422E-02 Eh
   gradient norm :     0.0094730 Eh/α   predicted    -0.9363632E-02 (  24.01%)
   displ. norm   :     0.3610263 α      lambda       -0.2360078E-02
   maximum displ.:     0.3391021 α      in ANC's #3, #4, #8, ...

........................................................................
.............................. CYCLE    3 ..............................
........................................................................

 iter      E             dE          RMSdq      gap      omega  full diag
   1    -10.2055483 -0.102055E+02  0.649E-02   12.62       0.0  T
   2    -10.2055486 -0.322267E-06  0.375E-02   12.62       1.1  T
   3    -10.2055487 -0.670974E-07  0.297E-03   12.61      13.7  T
   4    -10.2055487 -0.929107E-08  0.588E-04   12.61      69.4  T
   5    -10.2055487 -0.672919E-10  0.965E-05   12.61     423.1  T
     SCC iter.                  ...        0 min,  0.000 sec
     gradient                   ...        0 min,  0.001 sec
 * total energy  :   -10.1362456 Eh     change       -0.1866878E-02 Eh
   gradient norm :     0.0057202 Eh/α   predicted    -0.1333838E-02 ( -28.55%)
   displ. norm   :     0.3901690 α      lambda       -0.1549336E-02
   maximum displ.:     0.3614029 α      in ANC's #3, #4, #8, ...

........................................................................
.............................. CYCLE    4 ..............................
........................................................................

 iter      E             dE          RMSdq      gap      omega  full diag
   1    -10.2064009 -0.102064E+02  0.603E-02   12.88       0.0  T
   2    -10.2064020 -0.106603E-05  0.331E-02   12.87       1.2  T
   3    -10.2064021 -0.140765E-06  0.644E-03   12.87       6.3  T
   4    -10.2064021 -0.212868E-07  0.824E-04   12.87      49.5  T
   5    -10.2064021 -0.128741E-09  0.850E-05   12.87     480.4  T
     SCC iter.                  ...        0 min,  0.001 sec
     gradient                   ...        0 min,  0.000 sec
 * total energy  :   -10.1374438 Eh     change       -0.1198144E-02 Eh
   gradient norm :     0.0032338 Eh/α   predicted    -0.8925997E-03 ( -25.50%)
   displ. norm   :     0.2848441 α      lambda       -0.6646239E-03
   maximum displ.:     0.2555057 α      in ANC's #3, #4, #8, ...

........................................................................
.............................. CYCLE    5 ..............................
........................................................................

 iter      E             dE          RMSdq      gap      omega  full diag
   1    -10.2072845 -0.102073E+02  0.387E-02   13.11       0.0  T
   2    -10.2072849 -0.421982E-06  0.220E-02   13.11       1.9  T
   3    -10.2072849 -0.745637E-07  0.450E-03   13.10       9.1  T
   4    -10.2072850 -0.113126E-07  0.787E-04   13.11      51.8  T
   5    -10.2072850 -0.182686E-09  0.795E-05   13.11     513.6  T
     SCC iter.                  ...        0 min,  0.002 sec
     gradient                   ...        0 min,  0.000 sec
 * total energy  :   -10.1380042 Eh     change       -0.5604209E-03 Eh
   gradient norm :     0.0030577 Eh/α   predicted    -0.3592787E-03 ( -35.89%)
   displ. norm   :     0.2454107 α      lambda       -0.4186459E-03
   maximum displ.:     0.2093240 α      in ANC's #3, #4, #10, ...

........................................................................
.............................. CYCLE    6 ..............................
........................................................................

 iter      E             dE          RMSdq      gap      omega  full diag
   1    -10.2077549 -0.102078E+02  0.448E-02   13.31       0.0  T
   2    -10.2077550 -0.158492E-06  0.275E-02   13.31       1.5  T
   3    -10.2077551 -0.888621E-07  0.273E-03   13.31      15.0  T
   4    -10.2077551 -0.383898E-08  0.850E-04   13.31      48.0  T
   5    -10.2077551 -0.310695E-09  0.129E-04   13.31     317.4  T
     SCC iter.                  ...        0 min,  0.001 sec
     gradient                   ...        0 min,  0.001 sec
 * total energy  :   -10.1383757 Eh     change       -0.3714451E-03 Eh
   gradient norm :     0.0029260 Eh/α   predicted    -0.2219286E-03 ( -40.25%)
   displ. norm   :     0.2487423 α      lambda       -0.3419350E-03
   maximum displ.:     0.2033430 α      in ANC's #3, #4, #8, ...

........................................................................
.............................. CYCLE    7 ..............................
........................................................................

 iter      E             dE          RMSdq      gap      omega  full diag
   1    -10.2077871 -0.102078E+02  0.600E-02   13.48       0.0  T
   2    -10.2077874 -0.262849E-06  0.368E-02   13.48       1.1  T
   3    -10.2077876 -0.164018E-06  0.352E-03   13.48      11.6  T
   4    -10.2077876 -0.502756E-08  0.874E-04   13.48      46.7  T
   5    -10.2077876 -0.380615E-09  0.185E-04   13.48     220.9  T
     SCC iter.                  ...        0 min,  0.000 sec
     gradient                   ...        0 min,  0.000 sec
 * total energy  :   -10.1386811 Eh     change       -0.3054245E-03 Eh
   gradient norm :     0.0018707 Eh/α   predicted    -0.1815467E-03 ( -40.56%)
   displ. norm   :     0.3943499 α      lambda       -0.2875731E-03
   maximum displ.:     0.3156297 α      in ANC's #3, #4, #8, ...

........................................................................
.............................. CYCLE    8 ..............................
........................................................................

 iter      E             dE          RMSdq      gap      omega  full diag
   1    -10.2073849 -0.102074E+02  0.107E-01   13.69       0.0  T
   2    -10.2073858 -0.878239E-06  0.653E-02   13.69       1.0  T
   3    -10.2073863 -0.506899E-06  0.643E-03   13.69       6.3  T
   4    -10.2073863 -0.196474E-07  0.194E-03   13.69      21.0  T
   5    -10.2073863 -0.160144E-08  0.331E-04   13.69     123.2  T
   6    -10.2073863 -0.476295E-10  0.121E-04   13.69     337.5  T
     SCC iter.                  ...        0 min,  0.001 sec
     gradient                   ...        0 min,  0.001 sec
 * total energy  :   -10.1390400 Eh     change       -0.3588918E-03 Eh
   gradient norm :     0.0032075 Eh/α   predicted    -0.1537304E-03 ( -57.17%)
   displ. norm   :     0.2032107 α      lambda       -0.1696383E-03
   maximum displ.:     0.1717124 α      in ANC's #3, #4, #8, ...

........................................................................
.............................. CYCLE    9 ..............................
........................................................................

 iter      E             dE          RMSdq      gap      omega  full diag
   1    -10.2079795 -0.102080E+02  0.412E-02   13.83       0.0  T
   2    -10.2079796 -0.113977E-06  0.252E-02   13.83       1.6  T
   3    -10.2079796 -0.673267E-07  0.233E-03   13.83      17.5  T
   4    -10.2079796 -0.251618E-08  0.706E-04   13.83      57.9  T
   5    -10.2079796 -0.227622E-09  0.110E-04   13.83     372.8  T
     SCC iter.                  ...        0 min,  0.000 sec
     gradient                   ...        0 min,  0.001 sec
 * total energy  :   -10.1391949 Eh     change       -0.1549582E-03 Eh
   gradient norm :     0.0019020 Eh/α   predicted    -0.8831992E-04 ( -43.00%)
   displ. norm   :     0.3132156 α      lambda       -0.1433999E-03
   maximum displ.:     0.2550023 α      in ANC's #3, #4, #10, ...

........................................................................
.............................. CYCLE   10 ..............................
........................................................................

 iter      E             dE          RMSdq      gap      omega  full diag
   1    -10.2079018 -0.102079E+02  0.774E-02   13.94       0.0  T
   2    -10.2079021 -0.314025E-06  0.474E-02   13.94       1.0  T
   3    -10.2079023 -0.204596E-06  0.383E-03   13.94      10.7  T
   4    -10.2079023 -0.565912E-08  0.840E-04   13.94      48.6  T
   5    -10.2079023 -0.359533E-09  0.227E-04   13.94     179.5  T
     SCC iter.                  ...        0 min,  0.001 sec
     gradient                   ...        0 min,  0.000 sec
 * total energy  :   -10.1393872 Eh     change       -0.1922192E-03 Eh
   gradient norm :     0.0024732 Eh/α   predicted    -0.7482631E-04 ( -61.07%)
   displ. norm   :     0.1679555 α      lambda       -0.1045867E-03
   maximum displ.:     0.1458452 α      in ANC's #3, #4, #10, ...

........................................................................
.............................. CYCLE   11 ..............................
........................................................................

 iter      E             dE          RMSdq      gap      omega  full diag
   1    -10.2086033 -0.102086E+02  0.295E-02   14.04       0.0  T
   2    -10.2086034 -0.122527E-06  0.178E-02   14.03       2.3  T
   3    -10.2086034 -0.431345E-07  0.245E-03   14.03      16.6  T
   4    -10.2086034 -0.427740E-08  0.730E-04   14.03      55.9  T
   5    -10.2086034 -0.170763E-09  0.803E-05   14.03     508.3  T
     SCC iter.                  ...        0 min,  0.001 sec
     gradient                   ...        0 min,  0.000 sec
 * total energy  :   -10.1394833 Eh     change       -0.9617283E-04 Eh
   gradient norm :     0.0007485 Eh/α   predicted    -0.5376970E-04 ( -44.09%)
   displ. norm   :     0.2926899 α      lambda       -0.1004677E-03
   maximum displ.:     0.2400883 α      in ANC's #3, #4, #10, ...

........................................................................
.............................. CYCLE   12 ..............................
........................................................................

 iter      E             dE          RMSdq      gap      omega  full diag
   1    -10.2083088 -0.102083E+02  0.704E-02   14.08       0.0  T
   2    -10.2083091 -0.306530E-06  0.432E-02   14.08       1.0  T
   3    -10.2083093 -0.195364E-06  0.380E-03   14.08      10.8  T
   4    -10.2083093 -0.576772E-08  0.942E-04   14.08      43.3  T
   5    -10.2083093 -0.449479E-09  0.215E-04   14.08     190.3  T
     SCC iter.                  ...        0 min,  0.000 sec
     gradient                   ...        0 min,  0.000 sec
 * total energy  :   -10.1396201 Eh     change       -0.1367903E-03 Eh
   gradient norm :     0.0013352 Eh/α   predicted    -0.5214566E-04 ( -61.88%)
   displ. norm   :     0.2553422 α      lambda       -0.7812765E-04
   maximum displ.:     0.2198636 α      in ANC's #3, #4, #10, ...

........................................................................
.............................. CYCLE   13 ..............................
........................................................................

 iter      E             dE          RMSdq      gap      omega  full diag
   1    -10.2088118 -0.102088E+02  0.456E-02   14.16       0.0  T
   2    -10.2088119 -0.175324E-06  0.279E-02   14.16       1.5  T
   3    -10.2088120 -0.844711E-07  0.287E-03   14.16      14.2  T
   4    -10.2088120 -0.514849E-08  0.955E-04   14.16      42.8  T
   5    -10.2088120 -0.340656E-09  0.124E-04   14.16     328.8  T
     SCC iter.                  ...        0 min,  0.000 sec
     gradient                   ...        0 min,  0.000 sec
 * total energy  :   -10.1397282 Eh     change       -0.1080729E-03 Eh
   gradient norm :     0.0006569 Eh/α   predicted    -0.4019592E-04 ( -62.81%)
   displ. norm   :     0.2642440 α      lambda       -0.6797743E-04
   maximum displ.:     0.2212787 α      in ANC's #3, #4, #8, ...

........................................................................
.............................. CYCLE   14 ..............................
........................................................................

 iter      E             dE          RMSdq      gap      omega  full diag
   1    -10.2084737 -0.102085E+02  0.566E-02   14.18       0.0  T
   2    -10.2084739 -0.190837E-06  0.347E-02   14.18       1.2  T
   3    -10.2084741 -0.127349E-06  0.301E-03   14.18      13.6  T
   4    -10.2084741 -0.328840E-08  0.517E-04   14.18      78.9  T
   5    -10.2084741 -0.110425E-09  0.165E-04   14.18     247.9  T
     SCC iter.                  ...        0 min,  0.000 sec
     gradient                   ...        0 min,  0.000 sec
 * total energy  :   -10.1398226 Eh     change       -0.9440620E-04 Eh
   gradient norm :     0.0012552 Eh/α   predicted    -0.3504418E-04 ( -62.88%)
   displ. norm   :     0.2374008 α      lambda       -0.5808653E-04
   maximum displ.:     0.2084546 α      in ANC's #3, #4, #8, ...

........................................................................
.............................. CYCLE   15 ..............................
........................................................................

 iter      E             dE          RMSdq      gap      omega  full diag
   1    -10.2089362 -0.102089E+02  0.354E-02   14.25       0.0  T
   2    -10.2089363 -0.903312E-07  0.217E-02   14.25       1.9  T
   3    -10.2089363 -0.499263E-07  0.207E-03   14.25      19.7  T
   4    -10.2089363 -0.222587E-08  0.679E-04   14.25      60.1  T
   5    -10.2089363 -0.188210E-09  0.937E-05   14.25     435.9  T
     SCC iter.                  ...        0 min,  0.001 sec
     gradient                   ...        0 min,  0.000 sec
 * total energy  :   -10.1399037 Eh     change       -0.8106090E-04 Eh
   gradient norm :     0.0005052 Eh/α   predicted    -0.2977203E-04 ( -63.27%)
   displ. norm   :     0.2690595 α      lambda       -0.5629732E-04
   maximum displ.:     0.2319941 α      in ANC's #3, #4, #8, ...

........................................................................
.............................. CYCLE   16 ..............................
........................................................................

 iter      E             dE          RMSdq      gap      omega  full diag
   1    -10.2088034 -0.102088E+02  0.466E-02   14.27       0.0  T
   2    -10.2088035 -0.124284E-06  0.286E-02   14.27       1.4  T
   3    -10.2088036 -0.835272E-07  0.243E-03   14.27      16.8  T
   4    -10.2088036 -0.211453E-08  0.401E-04   14.27     101.8  T
   5    -10.2088036 -0.628759E-10  0.114E-04   14.27     359.6  T
     SCC iter.                  ...        0 min,  0.002 sec
     gradient                   ...        0 min,  0.001 sec
 * total energy  :   -10.1399831 Eh     change       -0.7947800E-04 Eh
   gradient norm :     0.0005809 Eh/α   predicted    -0.2905502E-04 ( -63.44%)
   displ. norm   :     0.2217836 α      lambda       -0.4260878E-04
   maximum displ.:     0.1955721 α      in ANC's #3, #4, #8, ...

........................................................................
.............................. CYCLE   17 ..............................
........................................................................

 iter      E             dE          RMSdq      gap      omega  full diag
   1    -10.2089763 -0.102090E+02  0.309E-02   14.30       0.0  T
   2    -10.2089764 -0.621018E-07  0.190E-02   14.30       2.2  T
   3    -10.2089764 -0.380336E-07  0.171E-03   14.30      23.8  T
   4    -10.2089764 -0.126937E-08  0.498E-04   14.30      82.0  T
   5    -10.2089764 -0.116176E-09  0.815E-05   14.30     501.1  T
     SCC iter.                  ...        0 min,  0.001 sec
     gradient                   ...        0 min,  0.000 sec
 * total energy  :   -10.1400441 Eh     change       -0.6094315E-04 Eh
   gradient norm :     0.0003299 Eh/α   predicted    -0.2177022E-04 ( -64.28%)
   displ. norm   :     0.1872549 α      lambda       -0.3278954E-04
   maximum displ.:     0.1651895 α      in ANC's #3, #4, #10, ...

........................................................................
.............................. CYCLE   18 ..............................
........................................................................

 iter      E             dE          RMSdq      gap      omega  full diag
   1    -10.2090086 -0.102090E+02  0.258E-02   14.31       0.0  T
   2    -10.2090086 -0.425329E-07  0.159E-02   14.31       2.6  T
   3    -10.2090087 -0.267942E-07  0.142E-03   14.31      28.8  T
   4    -10.2090087 -0.817225E-09  0.378E-04   14.31     108.0  T
   5    -10.2090087 -0.707061E-10  0.671E-05   14.31     608.7  T
     SCC iter.                  ...        0 min,  0.001 sec
     gradient                   ...        0 min,  0.000 sec
 * total energy  :   -10.1400914 Eh     change       -0.4732798E-04 Eh
   gradient norm :     0.0004971 Eh/α   predicted    -0.1665101E-04 ( -64.82%)
   displ. norm   :     0.1519179 α      lambda       -0.2585340E-04
   maximum displ.:     0.1348044 α      in ANC's #3, #4, #6, ...

........................................................................
.............................. CYCLE   19 ..............................
........................................................................

 iter      E             dE          RMSdq      gap      omega  full diag
   1    -10.2090782 -0.102091E+02  0.232E-02   14.31       0.0  T
   2    -10.2090782 -0.564992E-07  0.140E-02   14.31       2.9  T
   3    -10.2090783 -0.210171E-07  0.166E-03   14.31      24.5  T
   4    -10.2090783 -0.191612E-08  0.509E-04   14.31      80.3  T
   5    -10.2090783 -0.795328E-10  0.555E-05   14.31     735.3  T
     SCC iter.                  ...        0 min,  0.000 sec
     gradient                   ...        0 min,  0.001 sec
 * total energy  :   -10.1401246 Eh     change       -0.3315950E-04 Eh
   gradient norm :     0.0023144 Eh/α   predicted    -0.1305802E-04 ( -60.62%)
   displ. norm   :     0.0788617 α      lambda       -0.2275295E-04
   maximum displ.:     0.0707341 α      in ANC's #3, #4, #6, ...

........................................................................
.............................. CYCLE   20 ..............................
........................................................................

 iter      E             dE          RMSdq      gap      omega  full diag
   1    -10.2091620 -0.102092E+02  0.112E-02   14.33       0.0  T
   2    -10.2091620 -0.151749E-07  0.669E-03   14.33       6.1  T
   3    -10.2091621 -0.495034E-08  0.864E-04   14.33      47.2  T
   4    -10.2091621 -0.527573E-09  0.250E-04   14.33     163.2  T
     SCC iter.                  ...        0 min,  0.001 sec
     gradient                   ...        0 min,  0.000 sec
 * total energy  :   -10.1401458 Eh     change       -0.2120416E-04 Eh
   gradient norm :     0.0009934 Eh/α   predicted    -0.1144927E-04 ( -46.00%)
   displ. norm   :     0.1264287 α      lambda       -0.2062610E-04
   maximum displ.:     0.1126541 α      in ANC's #3, #4, #6, ...
 * RMSD in coord.:     2.1998609 α      energy gain  -0.1331742E-01 Eh

generating ANC from exact Hessian ...
Using Lindh-Hessian (1995)
 Shifting diagonal of input Hessian by   9.994284980591250E-003
 Lowest  eigenvalues of input Hessian
    0.000000    0.000000    0.000000    0.000000    0.000000    0.000000
    0.010000    0.010027    0.010427    0.010430    0.010496    0.010500
    0.313369    0.315085    1.214988    1.218592    1.443348    1.446639
 Highest eigenvalues
    0.313369    0.315085    1.214988    1.218592    1.443348    1.446639
 

........................................................................
.............................. CYCLE   21 ..............................
........................................................................

 iter      E             dE          RMSdq      gap      omega  full diag
   1    -10.2091237 -0.102091E+02  0.179E-02   14.33       0.0  T
   2    -10.2091237 -0.306162E-07  0.108E-02   14.33       3.8  T
   3    -10.2091237 -0.128698E-07  0.121E-03   14.33      33.6  T
   4    -10.2091237 -0.961817E-09  0.382E-04   14.33     106.9  T
   5    -10.2091237 -0.455156E-10  0.437E-05   14.33     934.2  T
     SCC iter.                  ...        0 min,  0.000 sec
     gradient                   ...        0 min,  0.001 sec
 * total energy  :   -10.1401739 Eh     change       -0.2810393E-04 Eh
   gradient norm :     0.0010632 Eh/α   predicted     0.0000000E+00 (-100.00%)
   displ. norm   :     0.0410668 α      lambda       -0.8619968E-05
   maximum displ.:     0.0359163 α      in ANC's #2, #4, #3, ...

........................................................................
.............................. CYCLE   22 ..............................
........................................................................

 iter      E             dE          RMSdq      gap      omega  full diag
   1    -10.2090755 -0.102091E+02  0.184E-02   14.33       0.0  T
   2    -10.2090755 -0.248646E-07  0.113E-02   14.33       3.6  T
   3    -10.2090755 -0.140070E-07  0.110E-03   14.33      37.2  T
   4    -10.2090755 -0.572637E-09  0.337E-04   14.33     121.1  T
   5    -10.2090755 -0.473612E-10  0.520E-05   14.33     784.6  T
     SCC iter.                  ...        0 min,  0.001 sec
     gradient                   ...        0 min,  0.000 sec
 * total energy  :   -10.1401858 Eh     change       -0.1192272E-04 Eh
   gradient norm :     0.0003160 Eh/α   predicted    -0.4313602E-05 ( -63.82%)
   displ. norm   :     0.0732132 α      lambda       -0.1294901E-04
   maximum displ.:     0.0559174 α      in ANC's #2, #4, #3, ...

........................................................................
.............................. CYCLE   23 ..............................
........................................................................

 iter      E             dE          RMSdq      gap      omega  full diag
   1    -10.2089540 -0.102090E+02  0.425E-02   14.32       0.0  T
   2    -10.2089541 -0.114595E-06  0.261E-02   14.32       1.6  T
   3    -10.2089541 -0.739809E-07  0.234E-03   14.32      17.4  T
   4    -10.2089541 -0.204220E-08  0.488E-04   14.32      83.6  T
   5    -10.2089541 -0.117605E-09  0.116E-04   14.32     351.9  T
     SCC iter.                  ...        0 min,  0.000 sec
     gradient                   ...        0 min,  0.001 sec
 * total energy  :   -10.1402043 Eh     change       -0.1852557E-04 Eh
   gradient norm :     0.0010920 Eh/α   predicted    -0.6488788E-05 ( -64.97%)
   displ. norm   :     0.1206094 α      lambda       -0.1995430E-04
   maximum displ.:     0.0868696 α      in ANC's #2, #4, #3, ...

........................................................................
.............................. CYCLE   24 ..............................
........................................................................

 iter      E             dE          RMSdq      gap      omega  full diag
   1    -10.2086608 -0.102087E+02  0.755E-02   14.30       0.0  T
   2    -10.2086611 -0.352958E-06  0.463E-02   14.30       1.0  T
   3    -10.2086614 -0.230080E-06  0.411E-03   14.30       9.9  T
   4    -10.2086614 -0.618557E-08  0.799E-04   14.30      51.1  T
   5    -10.2086614 -0.287793E-09  0.246E-04   14.30     166.2  T
     SCC iter.                  ...        0 min,  0.001 sec
     gradient                   ...        0 min,  0.000 sec
 * total energy  :   -10.1402317 Eh     change       -0.2740033E-04 Eh
   gradient norm :     0.0021976 Eh/α   predicted    -0.1004283E-04 ( -63.35%)
   displ. norm   :     0.1093505 α      lambda       -0.2551187E-04
   maximum displ.:     0.0794678 α      in ANC's #2, #4, #3, ...

........................................................................
.............................. CYCLE   25 ..............................
........................................................................

 iter      E             dE          RMSdq      gap      omega  full diag
   1    -10.2084417 -0.102084E+02  0.681E-02   14.28       0.0  T
   2    -10.2084419 -0.283042E-06  0.418E-02   14.28       1.0  T
   3    -10.2084421 -0.185482E-06  0.368E-03   14.28      11.1  T
   4    -10.2084421 -0.492398E-08  0.670E-04   14.28      60.9  T
   5    -10.2084421 -0.188278E-09  0.223E-04   14.28     183.2  T
     SCC iter.                  ...        0 min,  0.000 sec
     gradient                   ...        0 min,  0.001 sec
 * total energy  :   -10.1402548 Eh     change       -0.2303095E-04 Eh
   gradient norm :     0.0029252 Eh/α   predicted    -0.1290805E-04 ( -43.95%)
   displ. norm   :     0.1297845 α      lambda       -0.3054731E-04
   maximum displ.:     0.0982058 α      in ANC's #2, #4, #3, ...

........................................................................
.............................. CYCLE   26 ..............................
........................................................................

 iter      E             dE          RMSdq      gap      omega  full diag
   1    -10.2082688 -0.102083E+02  0.774E-02   14.28       0.0  T
   2    -10.2082692 -0.361641E-06  0.475E-02   14.28       1.0  T
   3    -10.2082694 -0.236800E-06  0.415E-03   14.28       9.8  T
   4    -10.2082694 -0.630573E-08  0.758E-04   14.28      53.9  T
   5    -10.2082694 -0.247770E-09  0.252E-04   14.28     162.2  T
     SCC iter.                  ...        0 min,  0.000 sec
     gradient                   ...        0 min,  0.001 sec
 * total energy  :   -10.1402815 Eh     change       -0.2673378E-04 Eh
   gradient norm :     0.0034075 Eh/α   predicted    -0.1553093E-04 ( -41.91%)
   displ. norm   :     0.1341029 α      lambda       -0.3505997E-04
   maximum displ.:     0.1094707 α      in ANC's #2, #4, #3, ...

........................................................................
.............................. CYCLE   27 ..............................
........................................................................

 iter      E             dE          RMSdq      gap      omega  full diag
   1    -10.2084588 -0.102085E+02  0.712E-02   14.30       0.0  T
   2    -10.2084591 -0.306530E-06  0.437E-02   14.30       1.0  T
   3    -10.2084593 -0.198184E-06  0.382E-03   14.30      10.7  T
   4    -10.2084593 -0.546090E-08  0.771E-04   14.30      52.9  T
   5    -10.2084593 -0.291859E-09  0.227E-04   14.30     180.2  T
     SCC iter.                  ...        0 min,  0.000 sec
     gradient                   ...        0 min,  0.000 sec
 * total energy  :   -10.1403124 Eh     change       -0.3090225E-04 Eh
   gradient norm :     0.0027762 Eh/α   predicted    -0.1784532E-04 ( -42.25%)
   displ. norm   :     0.1549896 α      lambda       -0.4036672E-04
   maximum displ.:     0.1335697 α      in ANC's #2, #4, #3, ...

........................................................................
.............................. CYCLE   28 ..............................
........................................................................

 iter      E             dE          RMSdq      gap      omega  full diag
   1    -10.2089397 -0.102089E+02  0.731E-02   14.33       0.0  T
   2    -10.2089400 -0.326615E-06  0.447E-02   14.33       1.0  T
   3    -10.2089403 -0.202524E-06  0.393E-03   14.33      10.4  T
   4    -10.2089403 -0.628700E-08  0.992E-04   14.33      41.2  T
   5    -10.2089403 -0.492122E-09  0.223E-04   14.33     182.8  T
     SCC iter.                  ...        0 min,  0.000 sec
     gradient                   ...        0 min,  0.000 sec
 * total energy  :   -10.1403476 Eh     change       -0.3524747E-04 Eh
   gradient norm :     0.0011558 Eh/α   predicted    -0.2066809E-04 ( -41.36%)
   displ. norm   :     0.3044276 α      lambda       -0.3968820E-04
   maximum displ.:     0.2579831 α      in ANC's #2, #4, #3, ...

........................................................................
.............................. CYCLE   29 ..............................
........................................................................

 iter      E             dE          RMSdq      gap      omega  full diag
   1    -10.2081524 -0.102082E+02  0.151E-01   14.28       0.0  T
   2    -10.2081537 -0.128312E-05  0.924E-02   14.28       1.0  T
   3    -10.2081545 -0.838700E-06  0.781E-03   14.28       5.2  T
   4    -10.2081546 -0.224335E-07  0.143E-03   14.28      28.6  T
   5    -10.2081546 -0.933293E-09  0.479E-04   14.28      85.1  T
   6    -10.2081546 -0.107040E-09  0.815E-05   14.28     500.9  T
     SCC iter.                  ...        0 min,  0.001 sec
     gradient                   ...        0 min,  0.001 sec
 * total energy  :   -10.1403933 Eh     change       -0.4571325E-04 Eh
   gradient norm :     0.0040437 Eh/α   predicted    -0.2066224E-04 ( -54.80%)
   displ. norm   :     0.1403529 α      lambda       -0.4090013E-04
   maximum displ.:     0.1316912 α      in ANC's #2, #4, #3, ...

........................................................................
.............................. CYCLE   30 ..............................
........................................................................

 iter      E             dE          RMSdq      gap      omega  full diag
   1    -10.2089452 -0.102089E+02  0.472E-02   14.33       0.0  T
   2    -10.2089453 -0.180206E-06  0.287E-02   14.33       1.4  T
   3    -10.2089454 -0.873769E-07  0.293E-03   14.33      14.0  T
   4    -10.2089454 -0.505336E-08  0.939E-04   14.33      43.5  T
   5    -10.2089454 -0.336087E-09  0.131E-04   14.33     312.4  T
     SCC iter.                  ...        0 min,  0.001 sec
     gradient                   ...        0 min,  0.000 sec
 * total energy  :   -10.1404268 Eh     change       -0.3346160E-04 Eh
   gradient norm :     0.0013538 Eh/α   predicted    -0.2085277E-04 ( -37.68%)
   displ. norm   :     0.2990344 α      lambda       -0.3758581E-04
   maximum displ.:     0.2765376 α      in ANC's #2, #4, #3, ...

........................................................................
.............................. CYCLE   31 ..............................
........................................................................

 iter      E             dE          RMSdq      gap      omega  full diag
   1    -10.2093390 -0.102093E+02  0.108E-01   14.32       0.0  T
   2    -10.2093397 -0.744777E-06  0.662E-02   14.32       1.0  T
   3    -10.2093402 -0.453413E-06  0.594E-03   14.32       6.9  T
   4    -10.2093402 -0.148741E-07  0.159E-03   14.32      25.6  T
   5    -10.2093402 -0.124210E-08  0.323E-04   14.32     126.3  T
   6    -10.2093402 -0.431317E-10  0.114E-04   14.32     359.3  T
     SCC iter.                  ...        0 min,  0.000 sec
     gradient                   ...        0 min,  0.001 sec
 * total energy  :   -10.1404701 Eh     change       -0.4328596E-04 Eh
   gradient norm :     0.0028992 Eh/α   predicted    -0.1954284E-04 ( -54.85%)
   displ. norm   :     0.2160727 α      lambda       -0.4170987E-04
   maximum displ.:     0.1976865 α      in ANC's #2, #4, #3, ...

........................................................................
.............................. CYCLE   32 ..............................
........................................................................

 iter      E             dE          RMSdq      gap      omega  full diag
   1    -10.2088820 -0.102089E+02  0.832E-02   14.33       0.0  T
   2    -10.2088824 -0.432842E-06  0.509E-02   14.33       1.0  T
   3    -10.2088827 -0.263207E-06  0.454E-03   14.33       9.0  T
   4    -10.2088827 -0.867149E-08  0.124E-03   14.33      33.0  T
   5    -10.2088827 -0.735405E-09  0.246E-04   14.33     166.2  T
   6    -10.2088827 -0.250608E-10  0.865E-05   14.33     472.2  T
     SCC iter.                  ...        0 min,  0.001 sec
     gradient                   ...        0 min,  0.000 sec
 * total energy  :   -10.1405039 Eh     change       -0.3383904E-04 Eh
   gradient norm :     0.0017488 Eh/α   predicted    -0.2182699E-04 ( -35.50%)
   displ. norm   :     0.2703545 α      lambda       -0.2704137E-04
   maximum displ.:     0.2560894 α      in ANC's #2, #4, #3, ...

........................................................................
.............................. CYCLE   33 ..............................
........................................................................

 iter      E             dE          RMSdq      gap      omega  full diag
   1    -10.2090293 -0.102090E+02  0.825E-02   14.30       0.0  T
   2    -10.2090297 -0.390857E-06  0.505E-02   14.30       1.0  T
   3    -10.2090299 -0.239993E-06  0.430E-03   14.30       9.5  T
   4    -10.2090300 -0.764266E-08  0.113E-03   14.30      36.1  T
   5    -10.2090300 -0.634085E-09  0.239E-04   14.30     170.5  T
   6    -10.2090300 -0.238014E-10  0.823E-05   14.30     496.3  T
     SCC iter.                  ...        0 min,  0.001 sec
     gradient                   ...        0 min,  0.001 sec
 * total energy  :   -10.1405356 Eh     change       -0.3167662E-04 Eh
   gradient norm :     0.0030836 Eh/α   predicted    -0.1395995E-04 ( -55.93%)
   displ. norm   :     0.1378071 α      lambda       -0.2283299E-04
   maximum displ.:     0.1318218 α      in ANC's #2, #4, #3, ...

........................................................................
.............................. CYCLE   34 ..............................
........................................................................

 iter      E             dE          RMSdq      gap      omega  full diag
   1    -10.2091542 -0.102092E+02  0.383E-02   14.33       0.0  T
   2    -10.2091543 -0.844346E-07  0.234E-02   14.33       1.7  T
   3    -10.2091543 -0.520165E-07  0.200E-03   14.33      20.4  T
   4    -10.2091543 -0.163940E-08  0.518E-04   14.33      78.8  T
   5    -10.2091543 -0.137678E-09  0.982E-05   14.33     415.8  T
     SCC iter.                  ...        0 min,  0.001 sec
     gradient                   ...        0 min,  0.000 sec
 * total energy  :   -10.1405569 Eh     change       -0.2129795E-04 Eh
   gradient norm :     0.0018822 Eh/α   predicted    -0.1163438E-04 ( -45.37%)
   displ. norm   :     0.2637449 α      lambda       -0.2653721E-04
   maximum displ.:     0.2534992 α      in ANC's #2, #4, #3, ...

........................................................................
.............................. CYCLE   35 ..............................
........................................................................

 iter      E             dE          RMSdq      gap      omega  full diag
   1    -10.2094176 -0.102094E+02  0.698E-02   14.36       0.0  T
   2    -10.2094179 -0.305729E-06  0.427E-02   14.36       1.0  T
   3    -10.2094181 -0.186235E-06  0.382E-03   14.36      10.7  T
   4    -10.2094181 -0.607931E-08  0.103E-03   14.36      39.6  T
   5    -10.2094181 -0.514223E-09  0.206E-04   14.36     198.0  T
   6    -10.2094181 -0.172538E-10  0.729E-05   14.36     559.9  T
     SCC iter.                  ...        0 min,  0.001 sec
     gradient                   ...        0 min,  0.000 sec
 * total energy  :   -10.1405894 Eh     change       -0.3247773E-04 Eh
   gradient norm :     0.0011721 Eh/α   predicted    -0.1367939E-04 ( -57.88%)
   displ. norm   :     0.2284314 α      lambda       -0.1649244E-04
   maximum displ.:     0.2192072 α      in ANC's #2, #4, #3, ...

........................................................................
.............................. CYCLE   36 ..............................
........................................................................

 iter      E             dE          RMSdq      gap      omega  full diag
   1    -10.2092204 -0.102092E+02  0.607E-02   14.33       0.0  T
   2    -10.2092206 -0.210690E-06  0.372E-02   14.33       1.1  T
   3    -10.2092207 -0.137897E-06  0.316E-03   14.33      12.9  T
   4    -10.2092207 -0.365262E-08  0.585E-04   14.33      69.8  T
   5    -10.2092207 -0.164658E-09  0.181E-04   14.33     225.2  T
     SCC iter.                  ...        0 min,  0.001 sec
     gradient                   ...        0 min,  0.000 sec
 * total energy  :   -10.1406125 Eh     change       -0.2307770E-04 Eh
   gradient norm :     0.0019754 Eh/α   predicted    -0.8438947E-05 ( -63.43%)
   displ. norm   :     0.2031667 α      lambda       -0.1715271E-04
   maximum displ.:     0.1979451 α      in ANC's #2, #4, #3, ...

........................................................................
.............................. CYCLE   37 ..............................
........................................................................

 iter      E             dE          RMSdq      gap      omega  full diag
   1    -10.2097026 -0.102097E+02  0.440E-02   14.39       0.0  T
   2    -10.2097027 -0.127918E-06  0.269E-02   14.39       1.5  T
   3    -10.2097028 -0.719587E-07  0.246E-03   14.39      16.6  T
   4    -10.2097028 -0.293012E-08  0.761E-04   14.39      53.7  T
   5    -10.2097028 -0.250568E-09  0.118E-04   14.39     346.6  T
     SCC iter.                  ...        0 min,  0.000 sec
     gradient                   ...        0 min,  0.000 sec
 * total energy  :   -10.1406348 Eh     change       -0.2230866E-04 Eh
   gradient norm :     0.0011306 Eh/α   predicted    -0.8734686E-05 ( -60.85%)
   displ. norm   :     0.2238785 α      lambda       -0.1636972E-04
   maximum displ.:     0.2153442 α      in ANC's #2, #4, #3, ...

........................................................................
.............................. CYCLE   38 ..............................
........................................................................

 iter      E             dE          RMSdq      gap      omega  full diag
   1    -10.2092657 -0.102093E+02  0.576E-02   14.35       0.0  T
   2    -10.2092659 -0.189343E-06  0.352E-02   14.35       1.2  T
   3    -10.2092660 -0.120118E-06  0.300E-03   14.35      13.6  T
   4    -10.2092661 -0.347752E-08  0.701E-04   14.35      58.2  T
   5    -10.2092661 -0.254820E-09  0.163E-04   14.35     250.2  T
     SCC iter.                  ...        0 min,  0.000 sec
     gradient                   ...        0 min,  0.001 sec
 * total energy  :   -10.1406561 Eh     change       -0.2128284E-04 Eh
   gradient norm :     0.0010221 Eh/α   predicted    -0.8367053E-05 ( -60.69%)
   displ. norm   :     0.1795471 α      lambda       -0.1082123E-04
   maximum displ.:     0.1742409 α      in ANC's #2, #4, #3, ...

........................................................................
.............................. CYCLE   39 ..............................
........................................................................

 iter      E             dE          RMSdq      gap      omega  full diag
   1    -10.2091726 -0.102092E+02  0.402E-02   14.34       0.0  T
   2    -10.2091727 -0.882279E-07  0.247E-02   14.34       1.7  T
   3    -10.2091727 -0.583070E-07  0.205E-03   14.34      20.0  T
   4    -10.2091727 -0.150570E-08  0.335E-04   14.34     121.7  T
   5    -10.2091727 -0.476952E-10  0.888E-05   14.34     459.8  T
     SCC iter.                  ...        0 min,  0.001 sec
     gradient                   ...        0 min,  0.000 sec
 * total energy  :   -10.1406715 Eh     change       -0.1542922E-04 Eh
   gradient norm :     0.0013955 Eh/α   predicted    -0.5489792E-05 ( -64.42%)
   displ. norm   :     0.1611841 α      lambda       -0.1033646E-04
   maximum displ.:     0.1573185 α      in ANC's #2, #4, #3, ...

........................................................................
.............................. CYCLE   40 ..............................
........................................................................

 iter      E             dE          RMSdq      gap      omega  full diag
   1    -10.2092981 -0.102093E+02  0.326E-02   14.36       0.0  T
   2    -10.2092982 -0.632810E-07  0.200E-02   14.36       2.0  T
   3    -10.2092982 -0.404373E-07  0.173E-03   14.36      23.5  T
   4    -10.2092982 -0.113457E-08  0.386E-04   14.36     105.7  T
   5    -10.2092982 -0.802789E-10  0.826E-05   14.36     494.5  T
     SCC iter.                  ...        0 min,  0.000 sec
     gradient                   ...        0 min,  0.000 sec
 * total energy  :   -10.1406862 Eh     change       -0.1470764E-04 Eh
   gradient norm :     0.0007759 Eh/α   predicted    -0.5227559E-05 ( -64.46%)
   displ. norm   :     0.1689895 α      lambda       -0.9979916E-05
   maximum displ.:     0.1651734 α      in ANC's #2, #4, #3, ...

........................................................................
.............................. CYCLE   41 ..............................
........................................................................

 iter      E             dE          RMSdq      gap      omega  full diag
   1    -10.2094365 -0.102094E+02  0.329E-02   14.37       0.0  T
   2    -10.2094366 -0.633808E-07  0.202E-02   14.37       2.0  T
   3    -10.2094366 -0.408054E-07  0.174E-03   14.37      23.5  T
   4    -10.2094366 -0.112072E-08  0.369E-04   14.37     110.7  T
   5    -10.2094366 -0.730900E-10  0.817E-05   14.37     499.9  T
     SCC iter.                  ...        0 min,  0.000 sec
     gradient                   ...        0 min,  0.001 sec
 * total energy  :   -10.1407004 Eh     change       -0.1421836E-04 Eh
   gradient norm :     0.0003226 Eh/α   predicted    -0.5052599E-05 ( -64.46%)
   displ. norm   :     0.1660624 α      lambda       -0.8931861E-05
   maximum displ.:     0.1622142 α      in ANC's #2, #4, #3, ...

........................................................................
.............................. CYCLE   42 ..............................
........................................................................

 iter      E             dE          RMSdq      gap      omega  full diag
   1    -10.2094811 -0.102095E+02  0.323E-02   14.37       0.0  T
   2    -10.2094812 -0.567662E-07  0.198E-02   14.37       2.1  T
   3    -10.2094812 -0.374872E-07  0.164E-03   14.37      24.9  T
   4    -10.2094812 -0.957606E-09  0.274E-04   14.37     149.3  T
   5    -10.2094812 -0.334417E-10  0.615E-05   14.37     663.3  T
     SCC iter.                  ...        0 min,  0.001 sec
     gradient                   ...        0 min,  0.000 sec
 * total energy  :   -10.1407134 Eh     change       -0.1296783E-04 Eh
   gradient norm :     0.0003560 Eh/α   predicted    -0.4519657E-05 ( -65.15%)
   displ. norm   :     0.1571847 α      lambda       -0.8095441E-05
   maximum displ.:     0.1535677 α      in ANC's #2, #4, #5, ...
 * RMSD in coord.:     1.5578108 α      energy gain  -0.5676114E-03 Eh

generating ANC from exact Hessian ...
Using Lindh-Hessian (1995)
 Shifting diagonal of input Hessian by   9.996804015329402E-003
 Lowest  eigenvalues of input Hessian
    0.000000    0.000000    0.000000    0.000000    0.000000    0.010000
    0.000000    0.010005    0.010425    0.010426    0.010501    0.010502
    0.313267    0.313675    1.216027    1.216811    1.442676    1.443488
 Highest eigenvalues
    0.313267    0.313675    1.216027    1.216811    1.442676    1.443488
 

........................................................................
.............................. CYCLE   43 ..............................
........................................................................

 iter      E             dE          RMSdq      gap      omega  full diag
   1    -10.2095006 -0.102095E+02  0.300E-02   14.38       0.0  T
   2    -10.2095007 -0.477385E-07  0.184E-02   14.38       2.2  T
   3    -10.2095007 -0.315769E-07  0.151E-03   14.38      27.0  T
   4    -10.2095007 -0.811761E-09  0.250E-04   14.38     163.3  T
   5    -10.2095007 -0.276135E-10  0.528E-05   14.38     772.5  T
     SCC iter.                  ...        0 min,  0.001 sec
     gradient                   ...        0 min,  0.000 sec
 * total energy  :   -10.1407251 Eh     change       -0.1176720E-04 Eh
   gradient norm :     0.0003465 Eh/α   predicted     0.0000000E+00 (-100.00%)
   displ. norm   :     0.0118475 α      lambda       -0.7227480E-06
   maximum displ.:     0.0113215 α      in ANC's #1, #3, #5, ...

........................................................................
.............................. CYCLE   44 ..............................
........................................................................

 iter      E             dE          RMSdq      gap      omega  full diag
   1    -10.2095336 -0.102095E+02  0.318E-03   14.38       0.0  T
   2    -10.2095336 -0.667814E-09  0.193E-03   14.38      21.2  T
   3    -10.2095336 -0.267168E-09  0.171E-04   14.38     239.4  T
   4    -10.2095336 -0.199627E-10  0.535E-05   14.38     763.6  T
     SCC iter.                  ...        0 min,  0.000 sec
     gradient                   ...        0 min,  0.001 sec
 * total energy  :   -10.1407261 Eh     change       -0.1000120E-05 Eh
   gradient norm :     0.0000922 Eh/α   predicted    -0.3610958E-06 ( -63.89%)
   displ. norm   :     0.0159654 α      lambda       -0.8204693E-06
   maximum displ.:     0.0139832 α      in ANC's #1, #3, #5, ...

........................................................................
.............................. CYCLE   45 ..............................
........................................................................

 iter      E             dE          RMSdq      gap      omega  full diag
   1    -10.2095450 -0.102095E+02  0.662E-03   14.38       0.0  T
   2    -10.2095450 -0.205656E-08  0.405E-03   14.38      10.1  T
   3    -10.2095450 -0.128322E-08  0.289E-04   14.38     141.1  T
   4    -10.2095450 -0.282068E-10  0.741E-05   14.38     550.7  T
     SCC iter.                  ...        0 min,  0.001 sec
     gradient                   ...        0 min,  0.000 sec
 * total energy  :   -10.1407274 Eh     change       -0.1211875E-05 Eh
   gradient norm :     0.0002508 Eh/α   predicted    -0.4106115E-06 ( -66.12%)
   displ. norm   :     0.0226460 α      lambda       -0.1114254E-05
   maximum displ.:     0.0180453 α      in ANC's #1, #3, #5, ...

........................................................................
.............................. CYCLE   46 ..............................
........................................................................

 iter      E             dE          RMSdq      gap      omega  full diag
   1    -10.2095409 -0.102095E+02  0.117E-02   14.38       0.0  T
   2    -10.2095409 -0.638579E-08  0.717E-03   14.38       5.7  T
   3    -10.2095410 -0.418639E-08  0.511E-04   14.38      79.9  T
   4    -10.2095410 -0.756319E-10  0.894E-05   14.38     456.6  T
     SCC iter.                  ...        0 min,  0.001 sec
     gradient                   ...        0 min,  0.000 sec
 * total energy  :   -10.1407290 Eh     change       -0.1673277E-05 Eh
   gradient norm :     0.0003549 Eh/α   predicted    -0.5575281E-06 ( -66.68%)
   displ. norm   :     0.0377640 α      lambda       -0.1812583E-05
   maximum displ.:     0.0279071 α      in ANC's #1, #3, #5, ...

........................................................................
.............................. CYCLE   47 ..............................
........................................................................

 iter      E             dE          RMSdq      gap      omega  full diag
   1    -10.2094948 -0.102095E+02  0.217E-02   14.37       0.0  T
   2    -10.2094948 -0.221626E-07  0.133E-02   14.37       3.1  T
   3    -10.2094948 -0.144541E-07  0.954E-04   14.37      42.8  T
   4    -10.2094948 -0.267972E-09  0.179E-04   14.37     228.2  T
     SCC iter.                  ...        0 min,  0.000 sec
     gradient                   ...        0 min,  0.001 sec
 * total energy  :   -10.1407317 Eh     change       -0.2706646E-05 Eh
   gradient norm :     0.0005502 Eh/α   predicted    -0.9072317E-06 ( -66.48%)
   displ. norm   :     0.0623304 α      lambda       -0.2938442E-05
   maximum displ.:     0.0445570 α      in ANC's #1, #3, #5, ...

........................................................................
.............................. CYCLE   48 ..............................
........................................................................

 iter      E             dE          RMSdq      gap      omega  full diag
   1    -10.2093835 -0.102094E+02  0.371E-02   14.36       0.0  T
   2    -10.2093835 -0.634222E-07  0.227E-02   14.36       1.8  T
   3    -10.2093836 -0.408937E-07  0.162E-03   14.36      25.2  T
   4    -10.2093836 -0.804667E-09  0.343E-04   14.36     119.0  T
   5    -10.2093836 -0.643787E-10  0.750E-05   14.36     544.3  T
     SCC iter.                  ...        0 min,  0.001 sec
     gradient                   ...        0 min,  0.000 sec
 * total energy  :   -10.1407360 Eh     change       -0.4223976E-05 Eh
   gradient norm :     0.0010842 Eh/α   predicted    -0.1472076E-05 ( -65.15%)
   displ. norm   :     0.0867530 α      lambda       -0.3936265E-05
   maximum displ.:     0.0623061 α      in ANC's #1, #3, #5, ...

........................................................................
.............................. CYCLE   49 ..............................
........................................................................

 iter      E             dE          RMSdq      gap      omega  full diag
   1    -10.2091777 -0.102092E+02  0.508E-02   14.33       0.0  T
   2    -10.2091778 -0.115218E-06  0.311E-02   14.33       1.3  T
   3    -10.2091779 -0.725064E-07  0.221E-03   14.33      18.4  T
   4    -10.2091779 -0.167949E-08  0.560E-04   14.33      72.9  T
   5    -10.2091779 -0.155191E-09  0.110E-04   14.33     371.8  T
     SCC iter.                  ...        0 min,  0.001 sec
     gradient                   ...        0 min,  0.001 sec
 * total energy  :   -10.1407409 Eh     change       -0.4924084E-05 Eh
   gradient norm :     0.0021371 Eh/α   predicted    -0.1974896E-05 ( -59.89%)
   displ. norm   :     0.0423523 α      lambda       -0.3119230E-05
   maximum displ.:     0.0329691 α      in ANC's #1, #3, #5, ...

........................................................................
.............................. CYCLE   50 ..............................
........................................................................

 iter      E             dE          RMSdq      gap      omega  full diag
   1    -10.2091628 -0.102092E+02  0.215E-02   14.33       0.0  T
   2    -10.2091628 -0.180890E-07  0.131E-02   14.33       3.1  T
   3    -10.2091629 -0.116304E-07  0.911E-04   14.33      44.8  T
   4    -10.2091629 -0.300240E-09  0.212E-04   14.33     192.6  T
     SCC iter.                  ...        0 min,  0.001 sec
     gradient                   ...        0 min,  0.000 sec
 * total energy  :   -10.1407438 Eh     change       -0.2928112E-05 Eh
   gradient norm :     0.0023422 Eh/α   predicted    -0.1561652E-05 ( -46.67%)
   displ. norm   :     0.0546403 α      lambda       -0.5413268E-05
   maximum displ.:     0.0450256 α      in ANC's #1, #3, #5, ...

........................................................................
.............................. CYCLE   51 ..............................
........................................................................

 iter      E             dE          RMSdq      gap      omega  full diag
   1    -10.2092744 -0.102093E+02  0.243E-02   14.34       0.0  T
   2    -10.2092744 -0.215046E-07  0.148E-02   14.34       2.8  T
   3    -10.2092744 -0.140732E-07  0.101E-03   14.34      40.4  T
   4    -10.2092744 -0.373863E-09  0.216E-04   14.34     189.3  T
   5    -10.2092744 -0.271587E-10  0.453E-05   14.34     900.9  T
     SCC iter.                  ...        0 min,  0.001 sec
     gradient                   ...        0 min,  0.000 sec
 * total energy  :   -10.1407489 Eh     change       -0.5100020E-05 Eh
   gradient norm :     0.0020631 Eh/α   predicted    -0.2714073E-05 ( -46.78%)
   displ. norm   :     0.1105743 α      lambda       -0.1068253E-04
   maximum displ.:     0.0913445 α      in ANC's #1, #3, #6, ...

........................................................................
.............................. CYCLE   52 ..............................
........................................................................

 iter      E             dE          RMSdq      gap      omega  full diag
   1    -10.2093762 -0.102094E+02  0.490E-02   14.35       0.0  T
   2    -10.2093763 -0.816689E-07  0.298E-02   14.35       1.4  T
   3    -10.2093763 -0.545934E-07  0.195E-03   14.35      20.9  T
   4    -10.2093763 -0.130907E-08  0.340E-04   14.35     120.2  T
   5    -10.2093763 -0.587601E-10  0.110E-04   14.35     371.0  T
     SCC iter.                  ...        0 min,  0.001 sec
     gradient                   ...        0 min,  0.000 sec
 * total energy  :   -10.1407590 Eh     change       -0.1012369E-04 Eh
   gradient norm :     0.0016019 Eh/α   predicted    -0.5408590E-05 ( -46.57%)
   displ. norm   :     0.3445610 α      lambda       -0.2091409E-04
   maximum displ.:     0.2832379 α      in ANC's #1, #3, #6, ...

........................................................................
.............................. CYCLE   53 ..............................
........................................................................

 iter      E             dE          RMSdq      gap      omega  full diag
   1    -10.2083232 -0.102083E+02  0.156E-01   14.26       0.0  T
   2    -10.2083240 -0.847187E-06  0.949E-02   14.26       1.0  T
   3    -10.2083246 -0.554728E-06  0.626E-03   14.26       6.5  T
   4    -10.2083246 -0.138882E-07  0.138E-03   14.26      29.6  T
   5    -10.2083246 -0.996829E-09  0.385E-04   14.26     106.2  T
   6    -10.2083246 -0.678249E-10  0.112E-04   14.26     365.8  T
     SCC iter.                  ...        0 min,  0.001 sec
     gradient                   ...        0 min,  0.000 sec
 * total energy  :   -10.1407759 Eh     change       -0.1685071E-04 Eh
   gradient norm :     0.0047537 Eh/α   predicted    -0.1100899E-04 ( -34.67%)
   displ. norm   :     0.0316214 α      lambda       -0.1910877E-04
   maximum displ.:     0.0295277 α      in ANC's #1, #3, #2, ...

........................................................................
.............................. CYCLE   54 ..............................
........................................................................

 iter      E             dE          RMSdq      gap      omega  full diag
   1    -10.2089940 -0.102090E+02  0.161E-02   14.32       0.0  T
   2    -10.2089940 -0.548047E-07  0.939E-03   14.32       4.3  T
   3    -10.2089940 -0.134555E-07  0.164E-03   14.32      24.9  T
   4    -10.2089940 -0.167449E-08  0.404E-04   14.32     101.0  T
   5    -10.2089940 -0.298890E-10  0.293E-05   14.32    1392.4  T
     SCC iter.                  ...        0 min,  0.001 sec
     gradient                   ...        0 min,  0.000 sec
 * total energy  :   -10.1407888 Eh     change       -0.1292489E-04 Eh
   gradient norm :     0.0023117 Eh/α   predicted    -0.9563439E-05 ( -26.01%)
   displ. norm   :     0.1163750 α      lambda       -0.1672009E-04
   maximum displ.:     0.1089126 α      in ANC's #1, #5, #3, ...

........................................................................
.............................. CYCLE   55 ..............................
........................................................................

 iter      E             dE          RMSdq      gap      omega  full diag
   1    -10.2095028 -0.102095E+02  0.339E-02   14.36       0.0  T
   2    -10.2095029 -0.586872E-07  0.205E-02   14.36       2.0  T
   3    -10.2095029 -0.268295E-07  0.165E-03   14.36      24.7  T
   4    -10.2095029 -0.175128E-08  0.549E-04   14.36      74.4  T
   5    -10.2095029 -0.110239E-09  0.635E-05   14.36     643.2  T
     SCC iter.                  ...        0 min,  0.000 sec
     gradient                   ...        0 min,  0.001 sec
 * total energy  :   -10.1408017 Eh     change       -0.1285946E-04 Eh
   gradient norm :     0.0011232 Eh/α   predicted    -0.8473866E-05 ( -34.10%)
   displ. norm   :     0.3380108 α      lambda       -0.1910198E-04
   maximum displ.:     0.3058129 α      in ANC's #1, #3, #5, ...

........................................................................
.............................. CYCLE   56 ..............................
........................................................................

 iter      E             dE          RMSdq      gap      omega  full diag
   1    -10.2090556 -0.102091E+02  0.117E-01   14.29       0.0  T
   2    -10.2090560 -0.443106E-06  0.712E-02   14.29       1.0  T
   3    -10.2090563 -0.288535E-06  0.455E-03   14.29       9.0  T
   4    -10.2090563 -0.761282E-08  0.104E-03   14.29      39.2  T
   5    -10.2090563 -0.566361E-09  0.281E-04   14.29     145.1  T
   6    -10.2090563 -0.366214E-10  0.821E-05   14.29     497.0  T
     SCC iter.                  ...        0 min,  0.001 sec
     gradient                   ...        0 min,  0.000 sec
 * total energy  :   -10.1408227 Eh     change       -0.2102230E-04 Eh
   gradient norm :     0.0027296 Eh/α   predicted    -0.1003609E-04 ( -52.26%)
   displ. norm   :     0.2111156 α      lambda       -0.1952797E-04
   maximum displ.:     0.1947790 α      in ANC's #1, #3, #5, ...

........................................................................
.............................. CYCLE   57 ..............................
........................................................................

 iter      E             dE          RMSdq      gap      omega  full diag
   1    -10.2087924 -0.102088E+02  0.700E-02   14.27       0.0  T
   2    -10.2087927 -0.285393E-06  0.430E-02   14.27       1.0  T
   3    -10.2087929 -0.190855E-06  0.359E-03   14.27      11.4  T
   4    -10.2087929 -0.417188E-08  0.618E-04   14.27      66.1  T
   5    -10.2087929 -0.183137E-09  0.209E-04   14.27     195.5  T
     SCC iter.                  ...        0 min,  0.001 sec
     gradient                   ...        0 min,  0.000 sec
 * total energy  :   -10.1408357 Eh     change       -0.1296858E-04 Eh
   gradient norm :     0.0034891 Eh/α   predicted    -0.1020028E-04 ( -21.35%)
   displ. norm   :     0.1805778 α      lambda       -0.2337250E-04
   maximum displ.:     0.1720949 α      in ANC's #1, #3, #4, ...

........................................................................
.............................. CYCLE   58 ..............................
........................................................................

 iter      E             dE          RMSdq      gap      omega  full diag
   1    -10.2091893 -0.102092E+02  0.467E-02   14.32       0.0  T
   2    -10.2091894 -0.113791E-06  0.286E-02   14.32       1.4  T
   3    -10.2091895 -0.738012E-07  0.234E-03   14.32      17.5  T
   4    -10.2091895 -0.202391E-08  0.543E-04   14.32      75.2  T
   5    -10.2091895 -0.160233E-09  0.114E-04   14.32     359.6  T
     SCC iter.                  ...        0 min,  0.001 sec
     gradient                   ...        0 min,  0.000 sec
 * total energy  :   -10.1408543 Eh     change       -0.1864252E-04 Eh
   gradient norm :     0.0028769 Eh/α   predicted    -0.1206629E-04 ( -35.28%)
   displ. norm   :     0.3661475 α      lambda       -0.3579491E-04
   maximum displ.:     0.3472188 α      in ANC's #1, #3, #4, ...

........................................................................
.............................. CYCLE   59 ..............................
........................................................................

 iter      E             dE          RMSdq      gap      omega  full diag
   1    -10.2092434 -0.102092E+02  0.101E-01   14.29       0.0  T
   2    -10.2092439 -0.547376E-06  0.617E-02   14.29       1.0  T
   3    -10.2092443 -0.340963E-06  0.507E-03   14.28       8.0  T
   4    -10.2092443 -0.105297E-07  0.141E-03   14.28      28.9  T
   5    -10.2092443 -0.956929E-09  0.267E-04   14.28     152.6  T
   6    -10.2092443 -0.279030E-10  0.971E-05   14.28     420.5  T
     SCC iter.                  ...        0 min,  0.000 sec
     gradient                   ...        0 min,  0.001 sec
 * total energy  :   -10.1408827 Eh     change       -0.2840980E-04 Eh
   gradient norm :     0.0025855 Eh/α   predicted    -0.2029671E-04 ( -28.56%)
   displ. norm   :     0.4732721 α      lambda       -0.3777177E-04
   maximum displ.:     0.4507510 α      in ANC's #1, #3, #4, ...

........................................................................
.............................. CYCLE   60 ..............................
........................................................................

 iter      E             dE          RMSdq      gap      omega  full diag
   1    -10.2085432 -0.102085E+02  0.123E-01   14.24       0.0  T
   2    -10.2085440 -0.807743E-06  0.752E-02   14.24       1.0  T
   3    -10.2085445 -0.509132E-06  0.618E-03   14.24       6.6  T
   4    -10.2085445 -0.153934E-07  0.168E-03   14.24      24.3  T
   5    -10.2085445 -0.135868E-08  0.338E-04   14.24     120.7  T
   6    -10.2085445 -0.417639E-10  0.119E-04   14.24     343.3  T
     SCC iter.                  ...        0 min,  0.000 sec
     gradient                   ...        0 min,  0.001 sec
 * total energy  :   -10.1409076 Eh     change       -0.2490285E-04 Eh
   gradient norm :     0.0044678 Eh/α   predicted    -0.2311493E-04 (  -7.18%)
   displ. norm   :     0.3889718 α      lambda       -0.6026484E-04
   maximum displ.:     0.3780287 α      in ANC's #1, #3, #4, ...

........................................................................
.............................. CYCLE   61 ..............................
........................................................................

 iter      E             dE          RMSdq      gap      omega  full diag
   1    -10.2101044 -0.102101E+02  0.829E-02   14.37       0.0  T
   2    -10.2101050 -0.530880E-06  0.507E-02   14.37       1.0  T
   3    -10.2101053 -0.298467E-06  0.510E-03   14.36       8.0  T
   4    -10.2101053 -0.125157E-07  0.164E-03   14.37      24.9  T
   5    -10.2101053 -0.106237E-08  0.240E-04   14.37     170.0  T
   6    -10.2101053 -0.194245E-10  0.949E-05   14.37     430.0  T
     SCC iter.                  ...        0 min,  0.001 sec
     gradient                   ...        0 min,  0.000 sec
 * total energy  :   -10.1409340 Eh     change       -0.2640697E-04 Eh
   gradient norm :     0.0025943 Eh/α   predicted    -0.3468972E-04 (  31.37%)
   displ. norm   :     0.5425376 α      lambda       -0.3794727E-04
   maximum displ.:     0.5207719 α      in ANC's #1, #3, #4, ...

........................................................................
.............................. CYCLE   62 ..............................
........................................................................

 iter      E             dE          RMSdq      gap      omega  full diag
   1    -10.2083026 -0.102083E+02  0.129E-01   14.24       0.0  T
   2    -10.2083037 -0.109603E-05  0.790E-02   14.24       1.0  T
   3    -10.2083043 -0.631461E-06  0.721E-03   14.24       5.7  T
   4    -10.2083043 -0.250227E-07  0.228E-03   14.24      17.9  T
   5    -10.2083043 -0.211549E-08  0.368E-04   14.24     110.9  T
   6    -10.2083043 -0.434213E-10  0.142E-04   14.24     287.1  T
     SCC iter.                  ...        0 min,  0.001 sec
     gradient                   ...        0 min,  0.000 sec
 * total energy  :   -10.1409476 Eh     change       -0.1353172E-04 Eh
   gradient norm :     0.0057442 Eh/α   predicted    -0.2455589E-04 (  81.47%)
   displ. norm   :     0.0710169 α      lambda       -0.2673277E-04
   maximum displ.:     0.0635838 α      in ANC's #1, #3, #4, ...

........................................................................
.............................. CYCLE   63 ..............................
........................................................................

 iter      E             dE          RMSdq      gap      omega  full diag
   1    -10.2093159 -0.102093E+02  0.324E-02   14.32       0.0  T
   2    -10.2093161 -0.187733E-06  0.193E-02   14.32       2.1  T
   3    -10.2093161 -0.623469E-07  0.309E-03   14.32      13.2  T
   4    -10.2093161 -0.627834E-08  0.839E-04   14.32      48.7  T
   5    -10.2093161 -0.183944E-09  0.905E-05   14.32     451.0  T
     SCC iter.                  ...        0 min,  0.001 sec
     gradient                   ...        0 min,  0.000 sec
 * total energy  :   -10.1409618 Eh     change       -0.1426818E-04 Eh
   gradient norm :     0.0022600 Eh/α   predicted    -0.1343259E-04 (  -5.86%)
   displ. norm   :     0.2400120 α      lambda       -0.2234564E-04
   maximum displ.:     0.2339139 α      in ANC's #1, #3, #5, ...

........................................................................
.............................. CYCLE   64 ..............................
........................................................................

 iter      E             dE          RMSdq      gap      omega  full diag
   1    -10.2097685 -0.102098E+02  0.473E-02   14.30       0.0  T
   2    -10.2097686 -0.153218E-06  0.289E-02   14.30       1.4  T
   3    -10.2097687 -0.888558E-07  0.269E-03   14.30      15.2  T
   4    -10.2097687 -0.327832E-08  0.839E-04   14.30      48.6  T
   5    -10.2097687 -0.293815E-09  0.125E-04   14.30     327.2  T
     SCC iter.                  ...        0 min,  0.002 sec
     gradient                   ...        0 min,  0.000 sec
 * total energy  :   -10.1409755 Eh     change       -0.1366133E-04 Eh
   gradient norm :     0.0023217 Eh/α   predicted    -0.1181530E-04 ( -13.51%)
   displ. norm   :     0.5252689 α      lambda       -0.3153375E-04
   maximum displ.:     0.5096911 α      in ANC's #1, #4, #3, ...

........................................................................
.............................. CYCLE   65 ..............................
........................................................................

 iter      E             dE          RMSdq      gap      omega  full diag
   1    -10.2091638 -0.102092E+02  0.104E-01   14.28       0.0  T
   2    -10.2091646 -0.745108E-06  0.638E-02   14.28       1.0  T
   3    -10.2091650 -0.441309E-06  0.595E-03   14.28       6.9  T
   4    -10.2091650 -0.161264E-07  0.183E-03   14.28      22.3  T
   5    -10.2091650 -0.137476E-08  0.313E-04   14.28     130.3  T
   6    -10.2091650 -0.298002E-10  0.118E-04   14.28     345.9  T
     SCC iter.                  ...        0 min,  0.000 sec
     gradient                   ...        0 min,  0.001 sec
 * total energy  :   -10.1409970 Eh     change       -0.2155822E-04 Eh
   gradient norm :     0.0024785 Eh/α   predicted    -0.2011823E-04 (  -6.68%)
   displ. norm   :     0.3711371 α      lambda       -0.1480807E-04
   maximum displ.:     0.3619121 α      in ANC's #1, #3, #4, ...

........................................................................
.............................. CYCLE   66 ..............................
........................................................................

 iter      E             dE          RMSdq      gap      omega  full diag
   1    -10.2088454 -0.102088E+02  0.674E-02   14.26       0.0  T
   2    -10.2088457 -0.274560E-06  0.414E-02   14.26       1.0  T
   3    -10.2088459 -0.182976E-06  0.362E-03   14.26      11.3  T
   4    -10.2088459 -0.466062E-08  0.742E-04   14.25      55.0  T
   5    -10.2088459 -0.252188E-09  0.210E-04   14.25     194.8  T
     SCC iter.                  ...        0 min,  0.000 sec
     gradient                   ...        0 min,  0.001 sec
 * total energy  :   -10.1410077 Eh     change       -0.1064379E-04 Eh
   gradient norm :     0.0033368 Eh/α   predicted    -0.8421939E-05 ( -20.87%)
   displ. norm   :     0.3544111 α      lambda       -0.2929528E-04
   maximum displ.:     0.3468378 α      in ANC's #1, #3, #4, ...
 * RMSD in coord.:     1.9380889 α      energy gain  -0.2943103E-03 Eh

generating ANC from exact Hessian ...
Using Lindh-Hessian (1995)
 Shifting diagonal of input Hessian by   9.991861001526312E-003
 Lowest  eigenvalues of input Hessian
    0.000000    0.000000    0.000000    0.000000    0.000000    0.000000
    0.010000    0.010000    0.010419    0.010423    0.010495    0.010499
    0.311916    0.313688    1.213538    1.217456    1.439962    1.443302
 Highest eigenvalues
    0.311916    0.313688    1.213538    1.217456    1.439962    1.443302
 

........................................................................
.............................. CYCLE   67 ..............................
........................................................................

 iter      E             dE          RMSdq      gap      omega  full diag
   1    -10.2096192 -0.102096E+02  0.615E-02   14.33       0.0  T
   2    -10.2096194 -0.257009E-06  0.377E-02   14.33       1.1  T
   3    -10.2096196 -0.165881E-06  0.355E-03   14.33      11.5  T
   4    -10.2096196 -0.461084E-08  0.880E-04   14.33      46.4  T
   5    -10.2096196 -0.380973E-09  0.183E-04   14.33     222.6  T
     SCC iter.                  ...        0 min,  0.000 sec
     gradient                   ...        0 min,  0.001 sec
 * total energy  :   -10.1410255 Eh     change       -0.1778626E-04 Eh
   gradient norm :     0.0025099 Eh/α   predicted     0.0000000E+00 (-100.00%)
   displ. norm   :     0.0169702 α      lambda       -0.7675068E-05
   maximum displ.:     0.0119568 α      in ANC's #1, #3, #4, ...

........................................................................
.............................. CYCLE   68 ..............................
........................................................................

 iter      E             dE          RMSdq      gap      omega  full diag
   1    -10.2097314 -0.102097E+02  0.204E-02   14.32       0.0  T
   2    -10.2097314 -0.321381E-07  0.127E-02   14.32       3.2  T
   3    -10.2097314 -0.192781E-07  0.970E-04   14.32      42.1  T
   4    -10.2097314 -0.274841E-09  0.269E-04   14.32     151.9  T
     SCC iter.                  ...        0 min,  0.001 sec
     gradient                   ...        0 min,  0.000 sec
 * total energy  :   -10.1410314 Eh     change       -0.5888965E-05 Eh
   gradient norm :     0.0006510 Eh/α   predicted    -0.3840196E-05 ( -34.79%)
   displ. norm   :     0.0551231 α      lambda       -0.7454765E-05
   maximum displ.:     0.0366635 α      in ANC's #1, #3, #4, ...

........................................................................
.............................. CYCLE   69 ..............................
........................................................................

 iter      E             dE          RMSdq      gap      omega  full diag
   1    -10.2096951 -0.102097E+02  0.635E-02   14.29       0.0  T
   2    -10.2096954 -0.297169E-06  0.396E-02   14.29       1.0  T
   3    -10.2096956 -0.182121E-06  0.282E-03   14.29      14.5  T
   4    -10.2096956 -0.214593E-08  0.745E-04   14.29      54.8  T
   5    -10.2096956 -0.178607E-09  0.130E-04   14.29     313.2  T
     SCC iter.                  ...        0 min,  0.000 sec
     gradient                   ...        0 min,  0.001 sec
 * total energy  :   -10.1410386 Eh     change       -0.7206245E-05 Eh
   gradient norm :     0.0022286 Eh/α   predicted    -0.3730541E-05 ( -48.23%)
   displ. norm   :     0.0342161 α      lambda       -0.5611339E-05
   maximum displ.:     0.0192919 α      in ANC's #1, #4, #3, ...

........................................................................
.............................. CYCLE   70 ..............................
........................................................................

 iter      E             dE          RMSdq      gap      omega  full diag
   1    -10.2096038 -0.102096E+02  0.367E-02   14.28       0.0  T
   2    -10.2096039 -0.965363E-07  0.228E-02   14.28       1.8  T
   3    -10.2096040 -0.613626E-07  0.165E-03   14.28      24.7  T
   4    -10.2096040 -0.620663E-09  0.355E-04   14.28     115.0  T
   5    -10.2096040 -0.582041E-10  0.757E-05   14.28     539.1  T
     SCC iter.                  ...        0 min,  0.001 sec
     gradient                   ...        0 min,  0.000 sec
 * total energy  :   -10.1410439 Eh     change       -0.5322271E-05 Eh
   gradient norm :     0.0024355 Eh/α   predicted    -0.2808875E-05 ( -47.22%)
   displ. norm   :     0.1415749 α      lambda       -0.2531580E-04
   maximum displ.:     0.0780424 α      in ANC's #4, #1, #3, ...

........................................................................
.............................. CYCLE   71 ..............................
........................................................................

 iter      E             dE          RMSdq      gap      omega  full diag
   1    -10.2084854 -0.102085E+02  0.148E-01   14.20       0.0  T
   2    -10.2084872 -0.174929E-05  0.920E-02   14.20       1.0  T
   3    -10.2084882 -0.103056E-05  0.744E-03   14.20       5.5  T
   4    -10.2084882 -0.209505E-07  0.217E-03   14.20      18.8  T
   5    -10.2084882 -0.142253E-08  0.362E-04   14.20     112.8  T
   6    -10.2084882 -0.397140E-10  0.163E-04   14.20     250.8  T
     SCC iter.                  ...        0 min,  0.001 sec
     gradient                   ...        0 min,  0.000 sec
 * total energy  :   -10.1410490 Eh     change       -0.5076309E-05 Eh
   gradient norm :     0.0060212 Eh/α   predicted    -0.1290960E-04 ( 154.31%)
   displ. norm   :     0.0525400 α      lambda       -0.3307862E-04
   maximum displ.:     0.0370303 α      in ANC's #1, #3, #4, ...

........................................................................
.............................. CYCLE   72 ..............................
........................................................................

 iter      E             dE          RMSdq      gap      omega  full diag
   1    -10.2095441 -0.102095E+02  0.643E-02   14.30       0.0  T
   2    -10.2095446 -0.496921E-06  0.396E-02   14.30       1.0  T
   3    -10.2095448 -0.208040E-06  0.436E-03   14.30       9.4  T
   4    -10.2095448 -0.130507E-07  0.114E-03   14.30      35.7  T
   5    -10.2095448 -0.186013E-09  0.123E-04   14.30     331.6  T
   6    -10.2095448 -0.395239E-11  0.606E-05   14.30     674.2  T
     SCC iter.                  ...        0 min,  0.001 sec
     gradient                   ...        0 min,  0.000 sec
 * total energy  :   -10.1410616 Eh     change       -0.1261749E-04 Eh
   gradient norm :     0.0012096 Eh/α   predicted    -0.1658672E-04 (  31.46%)
   displ. norm   :     0.0686475 α      lambda       -0.8252385E-05
   maximum displ.:     0.0436599 α      in ANC's #4, #3, #1, ...

........................................................................
.............................. CYCLE   73 ..............................
........................................................................

 iter      E             dE          RMSdq      gap      omega  full diag
   1    -10.2094131 -0.102094E+02  0.625E-02   14.30       0.0  T
   2    -10.2094134 -0.275433E-06  0.387E-02   14.30       1.1  T
   3    -10.2094136 -0.180981E-06  0.320E-03   14.30      12.8  T
   4    -10.2094136 -0.280138E-08  0.605E-04   14.30      67.5  T
   5    -10.2094136 -0.157158E-09  0.188E-04   14.30     217.4  T
     SCC iter.                  ...        0 min,  0.000 sec
     gradient                   ...        0 min,  0.001 sec
 * total energy  :   -10.1410725 Eh     change       -0.1090730E-04 Eh
   gradient norm :     0.0018451 Eh/α   predicted    -0.4134204E-05 ( -62.10%)
   displ. norm   :     0.3199791 α      lambda       -0.3575319E-04
   maximum displ.:     0.2143714 α      in ANC's #3, #4, #1, ...

........................................................................
.............................. CYCLE   74 ..............................
........................................................................

 iter      E             dE          RMSdq      gap      omega  full diag
   1    -10.2051976 -0.102052E+02  0.287E-01   13.91       0.0  T
   2    -10.2052054 -0.777084E-05  0.176E-01   13.91       1.0  T
   3    -10.2052096 -0.421562E-05  0.179E-02   13.91       2.3  T
   4    -10.2052098 -0.160390E-06  0.562E-03   13.90       7.3  T
   5    -10.2052098 -0.996671E-08  0.938E-04   13.90      43.5  T
   6    -10.2052098 -0.247105E-09  0.391E-04   13.90     104.4  T
     SCC iter.                  ...        0 min,  0.002 sec
     gradient                   ...        0 min,  0.001 sec
 * total energy  :   -10.1409329 Eh     change        0.1396113E-03 Eh
   gradient norm :     0.0177515 Eh/α   predicted    -0.1869028E-04 (-113.39%)
   displ. norm   :     0.1609696 α      lambda       -0.3727585E-03
   maximum displ.:     0.1042332 α      in ANC's #3, #4, #1, ...

........................................................................
.............................. CYCLE   75 ..............................
........................................................................

 iter      E             dE          RMSdq      gap      omega  full diag
   1    -10.2089511 -0.102090E+02  0.155E-01   14.23       0.0  T
   2    -10.2089541 -0.299383E-05  0.949E-02   14.23       1.0  T
   3    -10.2089554 -0.129540E-05  0.115E-02   14.23       3.5  T
   4    -10.2089555 -0.840637E-07  0.338E-03   14.23      12.1  T
   5    -10.2089555 -0.274511E-08  0.451E-04   14.23      90.6  T
   6    -10.2089555 -0.564278E-10  0.206E-04   14.23     197.7  T
     SCC iter.                  ...        0 min,  0.001 sec
     gradient                   ...        0 min,  0.000 sec
 * total energy  :   -10.1410949 Eh     change       -0.1620247E-03 Eh
   gradient norm :     0.0036267 Eh/α   predicted    -0.1912072E-03 (  18.01%)
   displ. norm   :     0.0205696 α      lambda       -0.1064168E-04
   maximum displ.:     0.0139147 α      in ANC's #4, #3, #10, ...

........................................................................
.............................. CYCLE   76 ..............................
........................................................................

 iter      E             dE          RMSdq      gap      omega  full diag
   1    -10.2093670 -0.102094E+02  0.181E-02   14.26       0.0  T
   2    -10.2093671 -0.351517E-07  0.110E-02   14.26       3.7  T
   3    -10.2093671 -0.149237E-07  0.129E-03   14.26      31.6  T
   4    -10.2093671 -0.107381E-08  0.415E-04   14.26      98.3  T
   5    -10.2093671 -0.479741E-10  0.495E-05   14.26     824.3  T
     SCC iter.                  ...        0 min,  0.002 sec
     gradient                   ...        0 min,  0.000 sec
 * total energy  :   -10.1411035 Eh     change       -0.8627715E-05 Eh
   gradient norm :     0.0019892 Eh/α   predicted    -0.5323346E-05 ( -38.30%)
   displ. norm   :     0.0978757 α      lambda       -0.1758576E-04
   maximum displ.:     0.0681082 α      in ANC's #3, #4, #1, ...

........................................................................
.............................. CYCLE   77 ..............................
........................................................................

 iter      E             dE          RMSdq      gap      omega  full diag
   1    -10.2100992 -0.102101E+02  0.840E-02   14.31       0.0  T
   2    -10.2100997 -0.545218E-06  0.519E-02   14.31       1.0  T
   3    -10.2101001 -0.350394E-06  0.480E-03   14.31       8.5  T
   4    -10.2101001 -0.730536E-08  0.116E-03   14.31      35.1  T
   5    -10.2101001 -0.588718E-09  0.269E-04   14.31     151.9  T
   6    -10.2101001 -0.206182E-10  0.941E-05   14.31     433.8  T
     SCC iter.                  ...        0 min,  0.000 sec
     gradient                   ...        0 min,  0.001 sec
 * total energy  :   -10.1411220 Eh     change       -0.1844523E-04 Eh
   gradient norm :     0.0011630 Eh/α   predicted    -0.8830401E-05 ( -52.13%)
   displ. norm   :     0.3214945 α      lambda       -0.3740369E-04
   maximum displ.:     0.2164951 α      in ANC's #3, #4, #1, ...

........................................................................
.............................. CYCLE   78 ..............................
........................................................................

 iter      E             dE          RMSdq      gap      omega  full diag
   1    -10.2061762 -0.102062E+02  0.264E-01   14.02       0.0  T
   2    -10.2061830 -0.676837E-05  0.163E-01   14.02       1.0  T
   3    -10.2061867 -0.375532E-05  0.174E-02   14.02       2.4  T
   4    -10.2061869 -0.145281E-06  0.550E-03   14.01       7.4  T
   5    -10.2061869 -0.100438E-07  0.934E-04   14.01      43.7  T
   6    -10.2061869 -0.228811E-09  0.366E-04   14.01     111.5  T
     SCC iter.                  ...        0 min,  0.001 sec
     gradient                   ...        0 min,  0.001 sec
 * total energy  :   -10.1410591 Eh     change        0.6290365E-04 Eh
   gradient norm :     0.0136484 Eh/α   predicted    -0.1955980E-04 (-131.09%)
   displ. norm   :     0.1664732 α      lambda       -0.2345046E-03
   maximum displ.:     0.1135589 α      in ANC's #3, #4, #1, ...

........................................................................
.............................. CYCLE   79 ..............................
........................................................................

 iter      E             dE          RMSdq      gap      omega  full diag
   1    -10.2093749 -0.102094E+02  0.138E-01   14.25       0.0  T
   2    -10.2093768 -0.190764E-05  0.845E-02   14.25       1.0  T
   3    -10.2093777 -0.949649E-06  0.936E-03   14.25       4.4  T
   4    -10.2093778 -0.486340E-07  0.298E-03   14.25      13.7  T
   5    -10.2093778 -0.267227E-08  0.440E-04   14.25      92.7  T
   6    -10.2093778 -0.494342E-10  0.186E-04   14.25     219.7  T
     SCC iter.                  ...        0 min,  0.001 sec
     gradient                   ...        0 min,  0.000 sec
 * total energy  :   -10.1411476 Eh     change       -0.8851884E-04 Eh
   gradient norm :     0.0021770 Eh/α   predicted    -0.1205023E-03 (  36.13%)
   displ. norm   :     0.0241257 α      lambda       -0.5578350E-05
   maximum displ.:     0.0159395 α      in ANC's #3, #4, #5, ...

........................................................................
.............................. CYCLE   80 ..............................
........................................................................

 iter      E             dE          RMSdq      gap      omega  full diag
   1    -10.2094588 -0.102095E+02  0.194E-02   14.25       0.0  T
   2    -10.2094588 -0.271702E-07  0.120E-02   14.25       3.4  T
   3    -10.2094588 -0.176529E-07  0.107E-03   14.25      38.0  T
   4    -10.2094588 -0.378911E-09  0.246E-04   14.25     165.9  T
   5    -10.2094588 -0.282441E-10  0.523E-05   14.25     780.9  T
     SCC iter.                  ...        0 min,  0.000 sec
     gradient                   ...        0 min,  0.001 sec
 * total energy  :   -10.1411527 Eh     change       -0.5083343E-05 Eh
   gradient norm :     0.0018151 Eh/α   predicted    -0.2789200E-05 ( -45.13%)
   displ. norm   :     0.2544542 α      lambda       -0.3208736E-04
   maximum displ.:     0.1663883 α      in ANC's #4, #3, #1, ...

........................................................................
.............................. CYCLE   81 ..............................
........................................................................

 iter      E             dE          RMSdq      gap      omega  full diag
   1    -10.2076322 -0.102076E+02  0.203E-01   14.11       0.0  T
   2    -10.2076356 -0.338004E-05  0.125E-01   14.12       1.0  T
   3    -10.2076376 -0.208960E-05  0.121E-02   14.12       3.4  T
   4    -10.2076377 -0.551237E-07  0.340E-03   14.11      12.0  T
   5    -10.2076377 -0.457256E-08  0.700E-04   14.11      58.3  T
   6    -10.2076377 -0.130733E-09  0.257E-04   14.11     158.8  T
     SCC iter.                  ...        0 min,  0.001 sec
     gradient                   ...        0 min,  0.000 sec
 * total energy  :   -10.1411499 Eh     change        0.2745420E-05 Eh
   gradient norm :     0.0089522 Eh/α   predicted    -0.1650503E-04 (-701.18%)
   displ. norm   :     0.0934940 α      lambda       -0.6516052E-04
   maximum displ.:     0.0615932 α      in ANC's #4, #3, #1, ...

........................................................................
.............................. CYCLE   82 ..............................
........................................................................

 iter      E             dE          RMSdq      gap      omega  full diag
   1    -10.2093724 -0.102094E+02  0.768E-02   14.25       0.0  T
   2    -10.2093730 -0.604315E-06  0.470E-02   14.24       1.0  T
   3    -10.2093733 -0.307927E-06  0.525E-03   14.24       7.8  T
   4    -10.2093733 -0.151033E-07  0.168E-03   14.24      24.3  T
   5    -10.2093733 -0.885533E-09  0.254E-04   14.24     160.5  T
   6    -10.2093733 -0.169607E-10  0.105E-04   14.24     389.1  T
     SCC iter.                  ...        0 min,  0.000 sec
     gradient                   ...        0 min,  0.000 sec
 * total energy  :   -10.1411782 Eh     change       -0.2823430E-04 Eh
   gradient norm :     0.0029593 Eh/α   predicted    -0.3286366E-04 (  16.40%)
   displ. norm   :     0.0282097 α      lambda       -0.9348631E-05
   maximum displ.:     0.0171870 α      in ANC's #3, #4, #1, ...

........................................................................
.............................. CYCLE   83 ..............................
........................................................................

 iter      E             dE          RMSdq      gap      omega  full diag
   1    -10.2095497 -0.102095E+02  0.264E-02   14.24       0.0  T
   2    -10.2095497 -0.823068E-07  0.164E-02   14.24       2.5  T
   3    -10.2095498 -0.498396E-07  0.186E-03   14.24      21.9  T
   4    -10.2095498 -0.130197E-08  0.532E-04   14.24      76.8  T
   5    -10.2095498 -0.103434E-09  0.913E-05   14.24     447.4  T
     SCC iter.                  ...        0 min,  0.001 sec
     gradient                   ...        0 min,  0.000 sec
 * total energy  :   -10.1411844 Eh     change       -0.6220491E-05 Eh
   gradient norm :     0.0025567 Eh/α   predicted    -0.4679262E-05 ( -24.78%)
   displ. norm   :     0.1137458 α      lambda       -0.2611394E-04
   maximum displ.:     0.0788050 α      in ANC's #4, #3, #1, ...

........................................................................
.............................. CYCLE   84 ..............................
........................................................................

 iter      E             dE          RMSdq      gap      omega  full diag
   1    -10.2094517 -0.102095E+02  0.927E-02   14.26       0.0  T
   2    -10.2094525 -0.810775E-06  0.575E-02   14.26       1.0  T
   3    -10.2094531 -0.532221E-06  0.593E-03   14.26       6.9  T
   4    -10.2094531 -0.107387E-07  0.129E-03   14.26      31.6  T
   5    -10.2094531 -0.675838E-09  0.334E-04   14.26     122.1  T
   6    -10.2094531 -0.309441E-10  0.994E-05   14.26     410.8  T
     SCC iter.                  ...        0 min,  0.001 sec
     gradient                   ...        0 min,  0.000 sec
 * total energy  :   -10.1412029 Eh     change       -0.1847928E-04 Eh
   gradient norm :     0.0028731 Eh/α   predicted    -0.1322635E-04 ( -28.43%)
   displ. norm   :     0.2161963 α      lambda       -0.3775838E-04
   maximum displ.:     0.1489233 α      in ANC's #3, #4, #1, ...

........................................................................
.............................. CYCLE   85 ..............................
........................................................................

 iter      E             dE          RMSdq      gap      omega  full diag
   1    -10.2072107 -0.102072E+02  0.175E-01   14.02       0.0  T
   2    -10.2072135 -0.276241E-05  0.108E-01   14.01       1.0  T
   3    -10.2072150 -0.153086E-05  0.110E-02   14.01       3.7  T
   4    -10.2072151 -0.571607E-07  0.346E-03   14.01      11.8  T
   5    -10.2072151 -0.399589E-08  0.582E-04   14.01      70.1  T
   6    -10.2072151 -0.889564E-10  0.233E-04   14.01     175.0  T
     SCC iter.                  ...        0 min,  0.001 sec
     gradient                   ...        0 min,  0.000 sec
 * total energy  :   -10.1411570 Eh     change        0.4584570E-04 Eh
   gradient norm :     0.0119164 Eh/α   predicted    -0.1976008E-04 (-143.10%)
   displ. norm   :     0.1473416 α      lambda       -0.1791436E-03
   maximum displ.:     0.1015088 α      in ANC's #3, #4, #1, ...

........................................................................
.............................. CYCLE   86 ..............................
........................................................................

 iter      E             dE          RMSdq      gap      omega  full diag
   1    -10.2099599 -0.102100E+02  0.126E-01   14.28       0.0  T
   2    -10.2099617 -0.180020E-05  0.768E-02   14.28       1.0  T
   3    -10.2099625 -0.822300E-06  0.910E-03   14.28       4.5  T
   4    -10.2099626 -0.500016E-07  0.282E-03   14.28      14.5  T
   5    -10.2099626 -0.217229E-08  0.393E-04   14.28     103.8  T
   6    -10.2099626 -0.390941E-10  0.171E-04   14.28     239.2  T
     SCC iter.                  ...        0 min,  0.000 sec
     gradient                   ...        0 min,  0.001 sec
 * total energy  :   -10.1412175 Eh     change       -0.6045151E-04 Eh
   gradient norm :     0.0017772 Eh/α   predicted    -0.9151413E-04 (  51.38%)
   displ. norm   :     0.0765367 α      lambda       -0.1254990E-04
   maximum displ.:     0.0524559 α      in ANC's #4, #3, #5, ...

........................................................................
.............................. CYCLE   87 ..............................
........................................................................

 iter      E             dE          RMSdq      gap      omega  full diag
   1    -10.2093726 -0.102094E+02  0.648E-02   14.27       0.0  T
   2    -10.2093730 -0.414511E-06  0.401E-02   14.27       1.0  T
   3    -10.2093733 -0.264264E-06  0.427E-03   14.26       9.6  T
   4    -10.2093733 -0.610599E-08  0.108E-03   14.26      37.6  T
   5    -10.2093733 -0.499508E-09  0.236E-04   14.26     173.4  T
   6    -10.2093733 -0.162608E-10  0.807E-05   14.26     505.6  T
     SCC iter.                  ...        0 min,  0.001 sec
     gradient                   ...        0 min,  0.000 sec
 * total energy  :   -10.1412229 Eh     change       -0.5411800E-05 Eh
   gradient norm :     0.0039960 Eh/α   predicted    -0.6291131E-05 (  16.25%)
   displ. norm   :     0.0655559 α      lambda       -0.1757261E-04
   maximum displ.:     0.0454071 α      in ANC's #3, #4, #10, ...

........................................................................
.............................. CYCLE   88 ..............................
........................................................................

 iter      E             dE          RMSdq      gap      omega  full diag
   1    -10.2091913 -0.102092E+02  0.526E-02   14.22       0.0  T
   2    -10.2091915 -0.211389E-06  0.325E-02   14.22       1.3  T
   3    -10.2091916 -0.131048E-06  0.296E-03   14.21      13.8  T
   4    -10.2091916 -0.316601E-08  0.804E-04   14.22      50.8  T
   5    -10.2091916 -0.270257E-09  0.162E-04   14.22     252.7  T
     SCC iter.                  ...        0 min,  0.002 sec
     gradient                   ...        0 min,  0.000 sec
 * total energy  :   -10.1412362 Eh     change       -0.1333749E-04 Eh
   gradient norm :     0.0032389 Eh/α   predicted    -0.8824748E-05 ( -33.84%)
   displ. norm   :     0.0945562 α      lambda       -0.2235137E-04
   maximum displ.:     0.0625673 α      in ANC's #3, #4, #10, ...

........................................................................
.............................. CYCLE   89 ..............................
........................................................................

 iter      E             dE          RMSdq      gap      omega  full diag
   1    -10.2091006 -0.102091E+02  0.747E-02   14.18       0.0  T
   2    -10.2091010 -0.372667E-06  0.461E-02   14.18       1.0  T
   3    -10.2091012 -0.246667E-06  0.392E-03   14.18      10.4  T
   4    -10.2091013 -0.447092E-08  0.727E-04   14.18      56.2  T
   5    -10.2091013 -0.194433E-09  0.246E-04   14.18     165.8  T
     SCC iter.                  ...        0 min,  0.001 sec
     gradient                   ...        0 min,  0.000 sec
 * total energy  :   -10.1412486 Eh     change       -0.1235107E-04 Eh
   gradient norm :     0.0037648 Eh/α   predicted    -0.1127631E-04 (  -8.70%)
   displ. norm   :     0.0136713 α      lambda       -0.1522125E-04
   maximum displ.:     0.0069648 α      in ANC's #10, #3, #2, ...

........................................................................
.............................. CYCLE   90 ..............................
........................................................................

 iter      E             dE          RMSdq      gap      omega  full diag
   1    -10.2100372 -0.102100E+02  0.178E-02   14.24       0.0  T
   2    -10.2100372 -0.594197E-07  0.105E-02   14.24       3.9  T
   3    -10.2100372 -0.152460E-07  0.171E-03   14.24      23.9  T
   4    -10.2100372 -0.184179E-08  0.406E-04   14.24     100.5  T
   5    -10.2100372 -0.206981E-10  0.294E-05   14.24    1390.1  T
     SCC iter.                  ...        0 min,  0.001 sec
     gradient                   ...        0 min,  0.001 sec
 * total energy  :   -10.1412562 Eh     change       -0.7647350E-05 Eh
   gradient norm :     0.0026025 Eh/α   predicted    -0.7610313E-05 (  -0.48%)
   displ. norm   :     0.1199794 α      lambda       -0.2236468E-04
   maximum displ.:     0.0747650 α      in ANC's #4, #3, #10, ...

........................................................................
.............................. CYCLE   91 ..............................
........................................................................

 iter      E             dE          RMSdq      gap      omega  full diag
   1    -10.2094781 -0.102095E+02  0.997E-02   14.20       0.0  T
   2    -10.2094790 -0.869370E-06  0.618E-02   14.20       1.0  T
   3    -10.2094795 -0.560857E-06  0.603E-03   14.20       6.8  T
   4    -10.2094795 -0.115598E-07  0.143E-03   14.20      28.5  T
   5    -10.2094795 -0.883622E-09  0.345E-04   14.20     118.2  T
   6    -10.2094795 -0.336442E-10  0.116E-04   14.20     352.0  T
     SCC iter.                  ...        0 min,  0.001 sec
     gradient                   ...        0 min,  0.002 sec
 * total energy  :   -10.1412746 Eh     change       -0.1838346E-04 Eh
   gradient norm :     0.0025533 Eh/α   predicted    -0.1134164E-04 ( -38.31%)
   displ. norm   :     0.1761205 α      lambda       -0.2759379E-04
   maximum displ.:     0.1116392 α      in ANC's #4, #3, #10, ...

........................................................................
.............................. CYCLE   92 ..............................
........................................................................

 iter      E             dE          RMSdq      gap      omega  full diag
   1    -10.2078759 -0.102079E+02  0.147E-01   14.13       0.0  T
   2    -10.2078779 -0.197065E-05  0.909E-02   14.13       1.0  T
   3    -10.2078791 -0.118249E-05  0.926E-03   14.13       4.4  T
   4    -10.2078791 -0.344852E-07  0.279E-03   14.13      14.6  T
   5    -10.2078791 -0.285199E-08  0.504E-04   14.13      81.0  T
   6    -10.2078791 -0.720100E-10  0.192E-04   14.13     213.1  T
     SCC iter.                  ...        0 min,  0.001 sec
     gradient                   ...        0 min,  0.000 sec
 * total energy  :   -10.1412652 Eh     change        0.9422896E-05 Eh
   gradient norm :     0.0077698 Eh/α   predicted    -0.1422584E-04 (-250.97%)
   displ. norm   :     0.1004679 α      lambda       -0.7079937E-04
   maximum displ.:     0.0615772 α      in ANC's #4, #3, #10, ...
 * RMSD in coord.:     0.5823836 α      energy gain  -0.2574924E-03 Eh

generating ANC from exact Hessian ...
Using Lindh-Hessian (1995)
 Shifting diagonal of input Hessian by   9.991920683271562E-003
 Lowest  eigenvalues of input Hessian
    0.000000    0.000000    0.000000    0.000000    0.000000    0.000000
    0.010000    0.010000    0.010417    0.010421    0.010492    0.010498
    0.310735    0.315613    1.212905    1.220634    1.436937    1.447332
 Highest eigenvalues
    0.310735    0.315613    1.212905    1.220634    1.436937    1.447332
 

........................................................................
.............................. CYCLE   93 ..............................
........................................................................

 iter      E             dE          RMSdq      gap      omega  full diag
   1    -10.2100261 -0.102100E+02  0.890E-02   14.30       0.0  T
   2    -10.2100269 -0.847358E-06  0.544E-02   14.30       1.0  T
   3    -10.2100273 -0.379964E-06  0.621E-03   14.30       6.6  T
   4    -10.2100273 -0.238698E-07  0.193E-03   14.30      21.1  T
   5    -10.2100273 -0.101592E-08  0.261E-04   14.30     156.6  T
   6    -10.2100273 -0.180140E-10  0.114E-04   14.30     357.1  T
     SCC iter.                  ...        0 min,  0.001 sec
     gradient                   ...        0 min,  0.000 sec
 * total energy  :   -10.1412837 Eh     change       -0.1847350E-04 Eh
   gradient norm :     0.0032560 Eh/α   predicted     0.0000000E+00 (-100.00%)
   displ. norm   :     0.0156271 α      lambda       -0.1106567E-04
   maximum displ.:     0.0112858 α      in ANC's #3, #1, #4, ...

........................................................................
.............................. CYCLE   94 ..............................
........................................................................

 iter      E             dE          RMSdq      gap      omega  full diag
   1    -10.2100129 -0.102100E+02  0.174E-02   14.27       0.0  T
   2    -10.2100129 -0.330005E-07  0.106E-02   14.27       3.9  T
   3    -10.2100129 -0.108512E-07  0.120E-03   14.26      34.0  T
   4    -10.2100129 -0.104299E-08  0.289E-04   14.26     141.3  T
   5    -10.2100129 -0.857447E-11  0.207E-05   14.26    1968.5  T
     SCC iter.                  ...        0 min,  0.000 sec
     gradient                   ...        0 min,  0.000 sec
 * total energy  :   -10.1412915 Eh     change       -0.7859780E-05 Eh
   gradient norm :     0.0008809 Eh/α   predicted    -0.5532477E-05 ( -29.61%)
   displ. norm   :     0.0427400 α      lambda       -0.6146802E-05
   maximum displ.:     0.0307158 α      in ANC's #3, #1, #4, ...

........................................................................
.............................. CYCLE   95 ..............................
........................................................................

 iter      E             dE          RMSdq      gap      omega  full diag
   1    -10.2098897 -0.102099E+02  0.446E-02   14.22       0.0  T
   2    -10.2098899 -0.166888E-06  0.276E-02   14.22       1.5  T
   3    -10.2098900 -0.832875E-07  0.240E-03   14.22      17.0  T
   4    -10.2098900 -0.335542E-08  0.704E-04   14.22      58.0  T
   5    -10.2098900 -0.105775E-09  0.890E-05   14.22     458.9  T
     SCC iter.                  ...        0 min,  0.001 sec
     gradient                   ...        0 min,  0.000 sec
 * total energy  :   -10.1412964 Eh     change       -0.4858892E-05 Eh
   gradient norm :     0.0019437 Eh/α   predicted    -0.3076492E-05 ( -36.68%)
   displ. norm   :     0.0238476 α      lambda       -0.3012740E-05
   maximum displ.:     0.0164356 α      in ANC's #3, #4, #1, ...

........................................................................
.............................. CYCLE   96 ..............................
........................................................................

 iter      E             dE          RMSdq      gap      omega  full diag
   1    -10.2098798 -0.102099E+02  0.224E-02   14.23       0.0  T
   2    -10.2098798 -0.385020E-07  0.139E-02   14.23       2.9  T
   3    -10.2098799 -0.254035E-07  0.119E-03   14.23      34.4  T
   4    -10.2098799 -0.342778E-09  0.196E-04   14.23     208.5  T
   5    -10.2098799 -0.153921E-10  0.459E-05   14.23     888.8  T
     SCC iter.                  ...        0 min,  0.001 sec
     gradient                   ...        0 min,  0.000 sec
 * total energy  :   -10.1413006 Eh     change       -0.4201520E-05 Eh
   gradient norm :     0.0016051 Eh/α   predicted    -0.1505321E-05 ( -64.17%)
   displ. norm   :     0.0768001 α      lambda       -0.9325508E-05
   maximum displ.:     0.0511020 α      in ANC's #3, #4, #1, ...

........................................................................
.............................. CYCLE   97 ..............................
........................................................................

 iter      E             dE          RMSdq      gap      omega  full diag
   1    -10.2097584 -0.102098E+02  0.715E-02   14.24       0.0  T
   2    -10.2097588 -0.392494E-06  0.445E-02   14.24       1.0  T
   3    -10.2097590 -0.258278E-06  0.385E-03   14.24      10.6  T
   4    -10.2097590 -0.379908E-08  0.718E-04   14.24      56.9  T
   5    -10.2097590 -0.199806E-09  0.226E-04   14.24     180.4  T
     SCC iter.                  ...        0 min,  0.001 sec
     gradient                   ...        0 min,  0.000 sec
 * total energy  :   -10.1413118 Eh     change       -0.1119987E-04 Eh
   gradient norm :     0.0012331 Eh/α   predicted    -0.4673857E-05 ( -58.27%)
   displ. norm   :     0.1147077 α      lambda       -0.1003674E-04
   maximum displ.:     0.0796756 α      in ANC's #3, #4, #1, ...

........................................................................
.............................. CYCLE   98 ..............................
........................................................................

 iter      E             dE          RMSdq      gap      omega  full diag
   1    -10.2091867 -0.102092E+02  0.105E-01   14.20       0.0  T
   2    -10.2091875 -0.841943E-06  0.654E-02   14.20       1.0  T
   3    -10.2091881 -0.540886E-06  0.573E-03   14.20       7.1  T
   4    -10.2091881 -0.962101E-08  0.133E-03   14.20      30.8  T
   5    -10.2091881 -0.769367E-09  0.324E-04   14.20     125.9  T
   6    -10.2091881 -0.318749E-10  0.114E-04   14.20     356.7  T
     SCC iter.                  ...        0 min,  0.001 sec
     gradient                   ...        0 min,  0.001 sec
 * total energy  :   -10.1413205 Eh     change       -0.8770363E-05 Eh
   gradient norm :     0.0034602 Eh/α   predicted    -0.5048863E-05 ( -42.43%)
   displ. norm   :     0.0580497 α      lambda       -0.1383293E-04
   maximum displ.:     0.0444596 α      in ANC's #3, #4, #10, ...

........................................................................
.............................. CYCLE   99 ..............................
........................................................................

 iter      E             dE          RMSdq      gap      omega  full diag
   1    -10.2094470 -0.102094E+02  0.460E-02   14.24       0.0  T
   2    -10.2094472 -0.188974E-06  0.282E-02   14.24       1.4  T
   3    -10.2094473 -0.106411E-06  0.299E-03   14.24      13.7  T
   4    -10.2094473 -0.437328E-08  0.958E-04   14.24      42.6  T
   5    -10.2094473 -0.324661E-09  0.144E-04   14.24     284.2  T
     SCC iter.                  ...        0 min,  0.001 sec
     gradient                   ...        0 min,  0.000 sec
 * total energy  :   -10.1413305 Eh     change       -0.1000216E-04 Eh
   gradient norm :     0.0027277 Eh/α   predicted    -0.6939573E-05 ( -30.62%)
   displ. norm   :     0.1186203 α      lambda       -0.1983244E-04
   maximum displ.:     0.0987510 α      in ANC's #3, #4, #1, ...

........................................................................
.............................. CYCLE  100 ..............................
........................................................................

 iter      E             dE          RMSdq      gap      omega  full diag
   1    -10.2092783 -0.102093E+02  0.984E-02   14.19       0.0  T
   2    -10.2092790 -0.691939E-06  0.608E-02   14.19       1.0  T
   3    -10.2092795 -0.461706E-06  0.552E-03   14.18       7.4  T
   4    -10.2092795 -0.945997E-08  0.995E-04   14.18      41.0  T
   5    -10.2092795 -0.389099E-09  0.329E-04   14.18     124.2  T
     SCC iter.                  ...        0 min,  0.001 sec
     gradient                   ...        0 min,  0.001 sec
 * total energy  :   -10.1413441 Eh     change       -0.1351164E-04 Eh
   gradient norm :     0.0029162 Eh/α   predicted    -0.1005581E-04 ( -25.58%)
   displ. norm   :     0.0642094 α      lambda       -0.2302092E-04
   maximum displ.:     0.0590287 α      in ANC's #3, #4, #10, ...

........................................................................
.............................. CYCLE  101 ..............................
........................................................................

 iter      E             dE          RMSdq      gap      omega  full diag
   1    -10.2104611 -0.102105E+02  0.531E-02   14.23       0.0  T
   2    -10.2104614 -0.285609E-06  0.323E-02   14.22       1.3  T
   3    -10.2104615 -0.125329E-06  0.370E-03   14.22      11.0  T
   4    -10.2104616 -0.878220E-08  0.116E-03   14.22      35.1  T
   5    -10.2104616 -0.416421E-09  0.148E-04   14.22     275.5  T
   6    -10.2104616 -0.661693E-11  0.591E-05   14.22     690.7  T
     SCC iter.                  ...        0 min,  0.001 sec
     gradient                   ...        0 min,  0.000 sec
 * total energy  :   -10.1413504 Eh     change       -0.6330064E-05 Eh
   gradient norm :     0.0026684 Eh/α   predicted    -0.1155856E-04 (  82.60%)
   displ. norm   :     0.1040180 α      lambda       -0.1508500E-04
   maximum displ.:     0.0772343 α      in ANC's #3, #4, #1, ...

........................................................................
.............................. CYCLE  102 ..............................
........................................................................

 iter      E             dE          RMSdq      gap      omega  full diag
   1    -10.2093079 -0.102093E+02  0.883E-02   14.13       0.0  T
   2    -10.2093085 -0.597162E-06  0.544E-02   14.13       1.0  T
   3    -10.2093088 -0.356280E-06  0.525E-03   14.13       7.8  T
   4    -10.2093089 -0.116603E-07  0.157E-03   14.13      26.0  T
   5    -10.2093089 -0.100549E-08  0.273E-04   14.13     149.5  T
   6    -10.2093089 -0.232880E-10  0.104E-04   14.13     394.3  T
     SCC iter.                  ...        0 min,  0.000 sec
     gradient                   ...        0 min,  0.001 sec
 * total energy  :   -10.1413549 Eh     change       -0.4522008E-05 Eh
   gradient norm :     0.0038794 Eh/α   predicted    -0.7625115E-05 (  68.62%)
   displ. norm   :     0.0370212 α      lambda       -0.2163138E-04
   maximum displ.:     0.0357926 α      in ANC's #3, #1, #4, ...

........................................................................
.............................. CYCLE  103 ..............................
........................................................................

 iter      E             dE          RMSdq      gap      omega  full diag
   1    -10.2096502 -0.102097E+02  0.347E-02   14.24       0.0  T
   2    -10.2096503 -0.102814E-06  0.210E-02   14.24       1.9  T
   3    -10.2096504 -0.402116E-07  0.223E-03   14.24      18.3  T
   4    -10.2096504 -0.328686E-08  0.690E-04   14.24      59.2  T
   5    -10.2096504 -0.136181E-09  0.733E-05   14.24     556.9  T
     SCC iter.                  ...        0 min,  0.001 sec
     gradient                   ...        0 min,  0.000 sec
 * total energy  :   -10.1413601 Eh     change       -0.5194177E-05 Eh
   gradient norm :     0.0024001 Eh/α   predicted    -0.1083137E-04 ( 108.53%)
   displ. norm   :     0.0284993 α      lambda       -0.8940661E-05
   maximum displ.:     0.0262209 α      in ANC's #3, #4, #1, ...

........................................................................
.............................. CYCLE  104 ..............................
........................................................................

 iter      E             dE          RMSdq      gap      omega  full diag
   1    -10.2099141 -0.102099E+02  0.253E-02   14.23       0.0  T
   2    -10.2099141 -0.591096E-07  0.155E-02   14.23       2.6  T
   3    -10.2099142 -0.299298E-07  0.166E-03   14.23      24.7  T
   4    -10.2099142 -0.151639E-08  0.526E-04   14.23      77.6  T
   5    -10.2099142 -0.909530E-10  0.692E-05   14.23     589.7  T
     SCC iter.                  ...        0 min,  0.000 sec
     gradient                   ...        0 min,  0.001 sec
 * total energy  :   -10.1413662 Eh     change       -0.6130687E-05 Eh
   gradient norm :     0.0007013 Eh/α   predicted    -0.4474594E-05 ( -27.01%)
   displ. norm   :     0.1704043 α      lambda       -0.1076259E-04
   maximum displ.:     0.1351775 α      in ANC's #3, #4, #1, ...

........................................................................
.............................. CYCLE  105 ..............................
........................................................................

 iter      E             dE          RMSdq      gap      omega  full diag
   1    -10.2087192 -0.102087E+02  0.144E-01   14.08       0.0  T
   2    -10.2087207 -0.155007E-05  0.884E-02   14.08       1.0  T
   3    -10.2087217 -0.937854E-06  0.846E-03   14.08       4.8  T
   4    -10.2087217 -0.299634E-07  0.245E-03   14.08      16.6  T
   5    -10.2087217 -0.262051E-08  0.450E-04   14.08      90.8  T
   6    -10.2087217 -0.661000E-10  0.167E-04   14.08     244.6  T
     SCC iter.                  ...        0 min,  0.001 sec
     gradient                   ...        0 min,  0.000 sec
 * total energy  :   -10.1413586 Eh     change        0.7637177E-05 Eh
   gradient norm :     0.0060521 Eh/α   predicted    -0.5451096E-05 (-171.38%)
   displ. norm   :     0.0577816 α      lambda       -0.3266170E-04
   maximum displ.:     0.0469705 α      in ANC's #3, #4, #1, ...

........................................................................
.............................. CYCLE  106 ..............................
........................................................................

 iter      E             dE          RMSdq      gap      omega  full diag
   1    -10.2097939 -0.102098E+02  0.521E-02   14.20       0.0  T
   2    -10.2097942 -0.242227E-06  0.319E-02   14.20       1.3  T
   3    -10.2097943 -0.119213E-06  0.340E-03   14.20      12.0  T
   4    -10.2097943 -0.654214E-08  0.109E-03   14.20      37.5  T
   5    -10.2097943 -0.402745E-09  0.144E-04   14.20     283.8  T
   6    -10.2097943 -0.690648E-11  0.567E-05   14.20     719.7  T
     SCC iter.                  ...        0 min,  0.000 sec
     gradient                   ...        0 min,  0.001 sec
 * total energy  :   -10.1413754 Eh     change       -0.1677060E-04 Eh
   gradient norm :     0.0017755 Eh/α   predicted    -0.1638435E-04 (  -2.30%)
   displ. norm   :     0.0423205 α      lambda       -0.5060113E-05
   maximum displ.:     0.0301420 α      in ANC's #4, #3, #10, ...

........................................................................
.............................. CYCLE  107 ..............................
........................................................................

 iter      E             dE          RMSdq      gap      omega  full diag
   1    -10.2099862 -0.102100E+02  0.346E-02   14.24       0.0  T
   2    -10.2099863 -0.935654E-07  0.212E-02   14.24       1.9  T
   3    -10.2099863 -0.578848E-07  0.212E-03   14.24      19.3  T
   4    -10.2099863 -0.185000E-08  0.598E-04   14.24      68.2  T
   5    -10.2099863 -0.156769E-09  0.101E-04   14.24     405.1  T
     SCC iter.                  ...        0 min,  0.001 sec
     gradient                   ...        0 min,  0.000 sec
 * total energy  :   -10.1413808 Eh     change       -0.5397477E-05 Eh
   gradient norm :     0.0004430 Eh/α   predicted    -0.2532771E-05 ( -53.07%)
   displ. norm   :     0.1287421 α      lambda       -0.7506255E-05
   maximum displ.:     0.0960119 α      in ANC's #3, #4, #10, ...

........................................................................
.............................. CYCLE  108 ..............................
........................................................................

 iter      E             dE          RMSdq      gap      omega  full diag
   1    -10.2096273 -0.102096E+02  0.106E-01   14.21       0.0  T
   2    -10.2096281 -0.745538E-06  0.650E-02   14.21       1.0  T
   3    -10.2096286 -0.500524E-06  0.594E-03   14.21       6.9  T
   4    -10.2096286 -0.121492E-07  0.109E-03   14.21      37.6  T
   5    -10.2096286 -0.511573E-09  0.344E-04   14.21     118.6  T
   6    -10.2096286 -0.436007E-10  0.663E-05   14.21     615.3  T
     SCC iter.                  ...        0 min,  0.001 sec
     gradient                   ...        0 min,  0.001 sec
 * total energy  :   -10.1413894 Eh     change       -0.8645390E-05 Eh
   gradient norm :     0.0017071 Eh/α   predicted    -0.3780607E-05 ( -56.27%)
   displ. norm   :     0.1413746 α      lambda       -0.7889434E-05
   maximum displ.:     0.1105096 α      in ANC's #3, #4, #10, ...

........................................................................
.............................. CYCLE  109 ..............................
........................................................................

 iter      E             dE          RMSdq      gap      omega  full diag
   1    -10.2090911 -0.102091E+02  0.118E-01   14.12       0.0  T
   2    -10.2090921 -0.978644E-06  0.724E-02   14.12       1.0  T
   3    -10.2090927 -0.624984E-06  0.680E-03   14.12       6.0  T
   4    -10.2090928 -0.178249E-07  0.170E-03   14.12      24.0  T
   5    -10.2090928 -0.146271E-08  0.370E-04   14.12     110.3  T
   6    -10.2090928 -0.486065E-10  0.124E-04   14.12     329.7  T
     SCC iter.                  ...        0 min,  0.001 sec
     gradient                   ...        0 min,  0.000 sec
 * total energy  :   -10.1413884 Eh     change        0.1063879E-05 Eh
   gradient norm :     0.0045229 Eh/α   predicted    -0.3978051E-05 (-473.92%)
   displ. norm   :     0.0375481 α      lambda       -0.1777905E-04
   maximum displ.:     0.0280198 α      in ANC's #3, #4, #5, ...

........................................................................
.............................. CYCLE  110 ..............................
........................................................................

 iter      E             dE          RMSdq      gap      omega  full diag
   1    -10.2100906 -0.102101E+02  0.347E-02   14.20       0.0  T
   2    -10.2100907 -0.116776E-06  0.210E-02   14.20       1.9  T
   3    -10.2100908 -0.509068E-07  0.239E-03   14.20      17.1  T
   4    -10.2100908 -0.361346E-08  0.768E-04   14.20      53.2  T
   5    -10.2100908 -0.193056E-09  0.878E-05   14.20     464.9  T
     SCC iter.                  ...        0 min,  0.000 sec
     gradient                   ...        0 min,  0.001 sec
 * total energy  :   -10.1413966 Eh     change       -0.8232651E-05 Eh
   gradient norm :     0.0020418 Eh/α   predicted    -0.8900675E-05 (   8.11%)
   displ. norm   :     0.0229557 α      lambda       -0.6328250E-05
   maximum displ.:     0.0198176 α      in ANC's #4, #3, #6, ...

........................................................................
.............................. CYCLE  111 ..............................
........................................................................

 iter      E             dE          RMSdq      gap      omega  full diag
   1    -10.2099746 -0.102100E+02  0.209E-02   14.23       0.0  T
   2    -10.2099747 -0.412545E-07  0.127E-02   14.23       3.2  T
   3    -10.2099747 -0.178473E-07  0.141E-03   14.23      29.0  T
   4    -10.2099747 -0.127254E-08  0.464E-04   14.23      87.9  T
   5    -10.2099747 -0.661657E-10  0.513E-05   14.23     795.2  T
     SCC iter.                  ...        0 min,  0.001 sec
     gradient                   ...        0 min,  0.000 sec
 * total energy  :   -10.1414001 Eh     change       -0.3560588E-05 Eh
   gradient norm :     0.0005193 Eh/α   predicted    -0.3166733E-05 ( -11.06%)
   displ. norm   :     0.0665963 α      lambda       -0.3028045E-05
   maximum displ.:     0.0471722 α      in ANC's #3, #4, #10, ...

........................................................................
.............................. CYCLE  112 ..............................
........................................................................

 iter      E             dE          RMSdq      gap      omega  full diag
   1    -10.2098735 -0.102099E+02  0.554E-02   14.23       0.0  T
   2    -10.2098737 -0.196589E-06  0.341E-02   14.23       1.2  T
   3    -10.2098738 -0.132115E-06  0.304E-03   14.23      13.4  T
   4    -10.2098738 -0.321803E-08  0.546E-04   14.23      74.8  T
   5    -10.2098738 -0.133001E-09  0.159E-04   14.23     256.2  T
     SCC iter.                  ...        0 min,  0.000 sec
     gradient                   ...        0 min,  0.000 sec
 * total energy  :   -10.1414040 Eh     change       -0.3895078E-05 Eh
   gradient norm :     0.0009812 Eh/α   predicted    -0.1517896E-05 ( -61.03%)
   displ. norm   :     0.2281835 α      lambda       -0.9692754E-05
   maximum displ.:     0.1664927 α      in ANC's #3, #4, #10, ...

........................................................................
.............................. CYCLE  113 ..............................
........................................................................

 iter      E             dE          RMSdq      gap      omega  full diag
   1    -10.2081329 -0.102081E+02  0.194E-01   14.05       0.0  T
   2    -10.2081356 -0.264429E-05  0.119E-01   14.06       1.0  T
   3    -10.2081372 -0.163750E-05  0.112E-02   14.06       3.7  T
   4    -10.2081373 -0.520096E-07  0.310E-03   14.06      13.2  T
   5    -10.2081373 -0.460965E-08  0.591E-04   14.06      69.1  T
   6    -10.2081373 -0.130868E-09  0.211E-04   14.06     193.5  T
     SCC iter.                  ...        0 min,  0.001 sec
     gradient                   ...        0 min,  0.000 sec
 * total energy  :   -10.1413815 Eh     change        0.2249998E-04 Eh
   gradient norm :     0.0073933 Eh/α   predicted    -0.4956673E-05 (-122.03%)
   displ. norm   :     0.1095091 α      lambda       -0.6711838E-04
   maximum displ.:     0.0798420 α      in ANC's #3, #4, #10, ...

........................................................................
.............................. CYCLE  114 ..............................
........................................................................

 iter      E             dE          RMSdq      gap      omega  full diag
   1    -10.2098044 -0.102098E+02  0.960E-02   14.20       0.0  T
   2    -10.2098051 -0.687743E-06  0.587E-02   14.20       1.0  T
   3    -10.2098055 -0.383572E-06  0.575E-03   14.20       7.1  T
   4    -10.2098055 -0.162857E-07  0.182E-03   14.20      22.5  T
   5    -10.2098055 -0.135135E-08  0.273E-04   14.20     149.6  T
   6    -10.2098055 -0.267359E-10  0.108E-04   14.20     379.7  T
     SCC iter.                  ...        0 min,  0.001 sec
     gradient                   ...        0 min,  0.001 sec
 * total energy  :   -10.1414107 Eh     change       -0.2917948E-04 Eh
   gradient norm :     0.0012559 Eh/α   predicted    -0.3396226E-04 (  16.39%)
   displ. norm   :     0.0298264 α      lambda       -0.2478342E-05
   maximum displ.:     0.0192561 α      in ANC's #3, #4, #10, ...

........................................................................
.............................. CYCLE  115 ..............................
........................................................................

 iter      E             dE          RMSdq      gap      omega  full diag
   1    -10.2100762 -0.102101E+02  0.254E-02   14.23       0.0  T
   2    -10.2100762 -0.404433E-07  0.155E-02   14.23       2.6  T
   3    -10.2100763 -0.242575E-07  0.137E-03   14.23      29.8  T
   4    -10.2100763 -0.826947E-09  0.399E-04   14.23     102.2  T
   5    -10.2100763 -0.719513E-10  0.618E-05   14.23     661.0  T
     SCC iter.                  ...        0 min,  0.001 sec
     gradient                   ...        0 min,  0.000 sec
 * total energy  :   -10.1414133 Eh     change       -0.2535832E-05 Eh
   gradient norm :     0.0003535 Eh/α   predicted    -0.1239125E-05 ( -51.14%)
   displ. norm   :     0.0750955 α      lambda       -0.2803024E-05
   maximum displ.:     0.0522115 α      in ANC's #3, #4, #10, ...

........................................................................
.............................. CYCLE  116 ..............................
........................................................................

 iter      E             dE          RMSdq      gap      omega  full diag
   1    -10.2100572 -0.102101E+02  0.635E-02   14.23       0.0  T
   2    -10.2100575 -0.261706E-06  0.390E-02   14.23       1.0  T
   3    -10.2100577 -0.176790E-06  0.351E-03   14.23      11.6  T
   4    -10.2100577 -0.429712E-08  0.578E-04   14.23      70.6  T
   5    -10.2100577 -0.139899E-09  0.199E-04   14.23     204.8  T
     SCC iter.                  ...        0 min,  0.002 sec
     gradient                   ...        0 min,  0.000 sec
 * total energy  :   -10.1414171 Eh     change       -0.3808611E-05 Eh
   gradient norm :     0.0003470 Eh/α   predicted    -0.1405501E-05 ( -63.10%)
   displ. norm   :     0.3739363 α      lambda       -0.1144854E-04
   maximum displ.:     0.2638239 α      in ANC's #3, #4, #10, ...

........................................................................
.............................. CYCLE  117 ..............................
........................................................................

 iter      E             dE          RMSdq      gap      omega  full diag
   1    -10.2048387 -0.102048E+02  0.326E-01   13.77       0.0  T
   2    -10.2048467 -0.798974E-05  0.199E-01   13.77       1.0  T
   3    -10.2048509 -0.420121E-05  0.194E-02   13.77       2.1  T
   4    -10.2048511 -0.207406E-06  0.633E-03   13.77       6.5  T
   5    -10.2048511 -0.160135E-07  0.949E-04   13.77      43.0  T
   6    -10.2048511 -0.353806E-09  0.374E-04   13.77     109.2  T
     SCC iter.                  ...        0 min,  0.001 sec
     gradient                   ...        0 min,  0.000 sec
 * total energy  :   -10.1411835 Eh     change        0.2335494E-03 Eh
   gradient norm :     0.0190516 Eh/α   predicted    -0.6080058E-05 (-102.60%)
   displ. norm   :     0.2213361 α      lambda       -0.5345999E-03
   maximum displ.:     0.1566991 α      in ANC's #3, #4, #10, ...

........................................................................
.............................. CYCLE  118 ..............................
........................................................................

 iter      E             dE          RMSdq      gap      omega  full diag
   1    -10.2092560 -0.102093E+02  0.198E-01   14.15       0.0  T
   2    -10.2092589 -0.287095E-05  0.121E-01   14.15       1.0  T
   3    -10.2092604 -0.144800E-05  0.118E-02   14.15       3.5  T
   4    -10.2092604 -0.772417E-07  0.381E-03   14.15      10.7  T
   5    -10.2092604 -0.553450E-08  0.525E-04   14.15      77.7  T
   6    -10.2092604 -0.101652E-09  0.216E-04   14.15     189.1  T
     SCC iter.                  ...        0 min,  0.000 sec
     gradient                   ...        0 min,  0.001 sec
 * total energy  :   -10.1414163 Eh     change       -0.2327636E-03 Eh
   gradient norm :     0.0033660 Eh/α   predicted    -0.2803944E-03 (  20.46%)
   displ. norm   :     0.0054858 α      lambda       -0.7244576E-05
   maximum displ.:     0.0046000 α      in ANC's #3, #5, #1, ...

........................................................................
.............................. CYCLE  119 ..............................
........................................................................

 iter      E             dE          RMSdq      gap      omega  full diag
   1    -10.2096723 -0.102097E+02  0.750E-03   14.19       0.0  T
   2    -10.2096723 -0.850825E-08  0.433E-03   14.19       9.4  T
   3    -10.2096723 -0.162502E-08  0.619E-04   14.19      66.0  T
   4    -10.2096723 -0.261892E-09  0.142E-04   14.19     288.4  T
     SCC iter.                  ...        0 min,  0.001 sec
     gradient                   ...        0 min,  0.000 sec
 * total energy  :   -10.1414214 Eh     change       -0.5161680E-05 Eh
   gradient norm :     0.0018553 Eh/α   predicted    -0.3620305E-05 ( -29.86%)
   displ. norm   :     0.0077531 α      lambda       -0.4457506E-05
   maximum displ.:     0.0053861 α      in ANC's #1, #4, #5, ...

........................................................................
.............................. CYCLE  120 ..............................
........................................................................

 iter      E             dE          RMSdq      gap      omega  full diag
   1    -10.2104729 -0.102105E+02  0.147E-02   14.24       0.0  T
   2    -10.2104729 -0.540791E-07  0.849E-03   14.24       4.8  T
   3    -10.2104729 -0.113479E-07  0.165E-03   14.24      24.8  T
   4    -10.2104729 -0.149876E-08  0.343E-04   14.24     119.2  T
   5    -10.2104729 -0.117684E-10  0.159E-05   14.24    2560.9  T
     SCC iter.                  ...        0 min,  0.000 sec
     gradient                   ...        0 min,  0.001 sec
 * total energy  :   -10.1414222 Eh     change       -0.7539858E-06 Eh
   gradient norm :     0.0014525 Eh/α   predicted    -0.2229494E-05 ( 195.69%)
   displ. norm   :     0.0114915 α      lambda       -0.2251995E-05
   maximum displ.:     0.0087675 α      in ANC's #4, #2, #1, ...
 * RMSD in coord.:     0.5729690 α      energy gain  -0.1570092E-03 Eh

generating ANC from exact Hessian ...
Using Lindh-Hessian (1995)
 Shifting diagonal of input Hessian by   9.991887799994027E-003
 Lowest  eigenvalues of input Hessian
    0.000000    0.000000    0.000000    0.000000    0.000000    0.000000
    0.010000    0.010000    0.010416    0.010418    0.010492    0.010494
    0.312366    0.313449    1.216539    1.218503    1.440002    1.442206
 Highest eigenvalues
    0.312366    0.313449    1.216539    1.218503    1.440002    1.442206
 

........................................................................
.............................. CYCLE  121 ..............................
........................................................................

 iter      E             dE          RMSdq      gap      omega  full diag
   1    -10.2101546 -0.102102E+02  0.131E-02   14.24       0.0  T
   2    -10.2101547 -0.201656E-07  0.794E-03   14.24       5.1  T
   3    -10.2101547 -0.693811E-08  0.964E-04   14.24      42.3  T
   4    -10.2101547 -0.640073E-09  0.273E-04   14.24     149.7  T
     SCC iter.                  ...        0 min,  0.000 sec
     gradient                   ...        0 min,  0.000 sec
 * total energy  :   -10.1414235 Eh     change       -0.1282927E-05 Eh
   gradient norm :     0.0007089 Eh/α   predicted     0.0000000E+00 (-100.00%)
   displ. norm   :     0.0057665 α      lambda       -0.6236901E-06
   maximum displ.:     0.0051215 α      in ANC's #3, #4, #2, ...

........................................................................
.............................. CYCLE  122 ..............................
........................................................................

 iter      E             dE          RMSdq      gap      omega  full diag
   1    -10.2101283 -0.102101E+02  0.568E-03   14.23       0.0  T
   2    -10.2101283 -0.292765E-08  0.343E-03   14.23      11.9  T
   3    -10.2101283 -0.118634E-08  0.373E-04   14.23     109.4  T
   4    -10.2101283 -0.908997E-10  0.115E-04   14.23     354.5  T
     SCC iter.                  ...        0 min,  0.000 sec
     gradient                   ...        0 min,  0.001 sec
 * total energy  :   -10.1414240 Eh     change       -0.5235072E-06 Eh
   gradient norm :     0.0001191 Eh/α   predicted    -0.3120778E-06 ( -40.39%)
   displ. norm   :     0.0067199 α      lambda       -0.1687209E-06
   maximum displ.:     0.0059125 α      in ANC's #3, #4, #2, ...

   *** GEOMETRY OPTIMIZATION CONVERGED AFTER 122 ITERATIONS ***

------------------------------------------------------------------------
 total energy gain   :        -0.0145956 Eh       -9.1589 kcal/mol
 total RMSD          :         5.6927498 a0        3.0125 Å
 total power (kW/mol):        -0.3141055 (step) -188.7727 (real)
------------------------------------------------------------------------

 ANCopt (total)                0 d,  0 h,  0 min,  0.203 sec
 optimizer setup                ...        0 min,  0.000 sec (  0.000%)
 model hessian                  ...        0 min,  0.001 sec (  0.493%)
 ANC generation                 ...        0 min,  0.000 sec (  0.000%)
 coordinate transformation      ...        0 min,  0.000 sec (  0.000%)
 single point calculation       ...        0 min,  0.173 sec ( 85.221%)
 optimization log               ...        0 min,  0.014 sec (  6.896%)
 hessian update                 ...        0 min,  0.003 sec (  1.478%)
 rational function              ...        0 min,  0.005 sec (  2.463%)

================
 final structure:
================
6
 xtb: 6.7.1pre (5071a88)
O           -3.25824461115402       -0.04482508790696        0.30901971547042
H           -2.53821012742406        0.02078183622903       -0.32136877986071
H           -2.87655343696685        0.04548632152273        1.18437871406670
O            5.42046489936897        0.06770800337657        0.35710739718687
H            5.83065376630471       -0.47268716298592        1.03529846345080
H            6.12188950994704        0.38353608974412       -0.21611695038944
 
 Bond Distances (Angstroems)
 ---------------------------
O1-H2=0.9592         O1-H3=0.9592         H2-O1=0.9592         H3-O1=0.9592         O4-H5=0.9593         O4-H6=0.9593         
H5-O4=0.9593         H6-O4=0.9593         
 O  H  Rav=0.9593 sigma=0.0000  Rmin=0.9592  Rmax=0.9593     4
 
 selected bond angles (degree)
 --------------------
H3-O1-H2=107.13                H6-O4-H5=107.17                
 
 selected dihedral angles (degree)
 ---------------------------------

 
 CMA Distance (Angstroems)
 ---------------------------
R(CMA):  8.6798
           -------------------------------------------------
          |                Final Singlepoint                |
           -------------------------------------------------

          ...................................................
          :                      SETUP                      :
          :.................................................:
          :  # basis functions                  12          :
          :  # atomic orbitals                  12          :
          :  # shells                            8          :
          :  # electrons                        16          :
          :  max. iterations                   250          :
          :  Hamiltonian                  GFN2-xTB          :
          :  restarted?                      false          :
          :  GBSA solvation                  false          :
          :  PC potential                    false          :
          :  electronic temp.          300.0000000     K    :
          :  accuracy                    1.0000000          :
          :  -> integral cutoff          0.2500000E+02      :
          :  -> integral neglect         0.1000000E-07      :
          :  -> SCF convergence          0.1000000E-05 Eh   :
          :  -> wf. convergence          0.1000000E-03 e    :
          :  Broyden damping             0.4000000          :
          :  net charge                          0          :
          :  unpaired electrons                  0          :
          ...................................................

 iter      E             dE          RMSdq      gap      omega  full diag
   1    -10.2101283 -0.102101E+02  0.119E-05   14.23       0.0  T
   2    -10.2101283 -0.479616E-13  0.693E-06   14.23    5894.0  T
   3    -10.2101283 -0.159872E-13  0.144E-06   14.23   28436.4  T

   *** convergence criteria satisfied after 3 iterations ***

         #    Occupation            Energy/Eh            Energy/eV
      -------------------------------------------------------------
         1        2.0000           -0.6828678             -18.5818
         2        2.0000           -0.6767721             -18.4159
         3        2.0000           -0.5710256             -15.5384
         4        2.0000           -0.5648849             -15.3713
         5        2.0000           -0.5138511             -13.9826
         6        2.0000           -0.5077264             -13.8159
         7        2.0000           -0.4492382             -12.2244
         8        2.0000           -0.4431299             -12.0582 (HOMO)
         9                          0.0797423               2.1699 (LUMO)
        10                          0.0860978               2.3428
        11                          0.2484324               6.7602
        12                          0.2546158               6.9284
      -------------------------------------------------------------
                  HL-Gap            0.5228722 Eh           14.2281 eV
             Fermi-level           -0.1816938 Eh           -4.9441 eV

 SCC (total)                   0 d,  0 h,  0 min,  0.002 sec
 SCC setup                      ...        0 min,  0.001 sec ( 50.006%)
 Dispersion                     ...        0 min,  0.000 sec (  0.000%)
 classical contributions        ...        0 min,  0.000 sec (  0.000%)
 integral evaluation            ...        0 min,  0.000 sec (  0.000%)
 iterations                     ...        0 min,  0.000 sec (  0.000%)
 molecular gradient             ...        0 min,  0.001 sec ( 49.994%)
 printout                       ...        0 min,  0.000 sec (  0.000%)

         :::::::::::::::::::::::::::::::::::::::::::::::::::::
         ::                     SUMMARY                     ::
         :::::::::::::::::::::::::::::::::::::::::::::::::::::
         :: total energy             -10.141423998948 Eh    ::
         :: gradient norm              0.000128361467 Eh/a0 ::
         :: HOMO-LUMO gap             14.228076046140 eV    ::
         ::.................................................::
         :: SCC energy               -10.210128168102 Eh    ::
         :: -> isotropic ES            0.062888245907 Eh    ::
         :: -> anisotropic ES          0.000656310745 Eh    ::
         :: -> anisotropic XC         -0.001752690209 Eh    ::
         :: -> dispersion             -0.000284692788 Eh    ::
         :: repulsion energy           0.068704169154 Eh    ::
         :: add. restraining           0.000000000000 Eh    ::
         :: total charge               0.000000000000 e     ::
         :::::::::::::::::::::::::::::::::::::::::::::::::::::

           -------------------------------------------------
          |                Property Printout                |
           -------------------------------------------------

    * Orbital Energies and Occupations

         #    Occupation            Energy/Eh            Energy/eV
      -------------------------------------------------------------
         1        2.0000           -0.6828678             -18.5818
         2        2.0000           -0.6767721             -18.4159
         3        2.0000           -0.5710256             -15.5384
         4        2.0000           -0.5648849             -15.3713
         5        2.0000           -0.5138511             -13.9826
         6        2.0000           -0.5077264             -13.8159
         7        2.0000           -0.4492382             -12.2244
         8        2.0000           -0.4431299             -12.0582 (HOMO)
         9                          0.0797423               2.1699 (LUMO)
        10                          0.0860978               2.3428
        11                          0.2484324               6.7602
        12                          0.2546158               6.9284
      -------------------------------------------------------------
                  HL-Gap            0.5228722 Eh           14.2281 eV
             Fermi-level           -0.1816938 Eh           -4.9441 eV

     #   Z          covCN         q      C6AA      α(0)
     1   8 O        1.611    -0.565    24.371     6.663
     2   1 H        0.805     0.283     0.775     1.382
     3   1 H        0.805     0.282     0.776     1.384
     4   8 O        1.611    -0.565    24.370     6.663
     5   1 H        0.805     0.283     0.776     1.383
     6   1 H        0.805     0.283     0.775     1.383

 Mol. C6AA /au·bohr⁶  :        178.155944
 Mol. C8AA /au·bohr⁸  :       3183.476572
 Mol. α(0) /au        :         18.858497


Wiberg/Mayer (AO) data.
largest (>0.10) Wiberg bond orders for each atom

 ---------------------------------------------------------------------------
     #   Z sym  total        # sym  WBO       # sym  WBO       # sym  WBO
 ---------------------------------------------------------------------------
     1   8 O    1.840 --     3 H    0.920     2 H    0.920
     2   1 H    0.920 --     1 O    0.920
     3   1 H    0.920 --     1 O    0.920
     4   8 O    1.840 --     5 H    0.920     6 H    0.920
     5   1 H    0.920 --     4 O    0.920
     6   1 H    0.920 --     4 O    0.920
 ---------------------------------------------------------------------------

Topologies differ in total number of bonds
Writing topology from bond orders to xtbtopo.mol

molecular dipole:
                 x           y           z       tot (Debye)
 q only:        1.182      -0.037       0.186
   full:        1.698      -0.053       0.268       4.370
molecular quadrupole (traceless):
                xx          xy          yy          xz          yz          zz
 q only:        4.972      -2.447      -3.862       0.403      -0.826      -1.110
  q+dip:        7.136      -3.534      -5.367       0.636      -1.070      -1.769
   full:        7.248      -3.506      -5.724       0.560      -1.267      -1.524

           -------------------------------------------------
          |                Geometry Summary                 |
           -------------------------------------------------

      molecular mass/u    :       36.0305728
   center of mass at/Å    :        1.1430275       0.0095210       0.3428529
  moments of inertia/u·Å² :        0.2367564E+01   0.6800767E+03   0.6819468E+03
rotational constants/cm⁻¹ :        0.7120244E+01   0.2478784E-01   0.2471986E-01

 * 4 selected distances

     #   Z          #   Z                                           value/Å
     1   8 O        2   1 H                                       0.9592412
     1   8 O        3   1 H                                       0.9592173 (min)
     4   8 O        5   1 H                                       0.9592837
     4   8 O        6   1 H                                       0.9593384 (max)

 * 1 distinct bonds (by element types)

   Z      Z             #   av. dist./Å        max./Å        min./Å
   1 H    8 O           4     0.9592702     0.9593384     0.9592173


optimized geometry written to: xtbopt.xyz


           -------------------------------------------------
          | TOTAL ENERGY              -10.141423998948 Eh   |
          | GRADIENT NORM               0.000128361467 Eh/α |
          | HOMO-LUMO GAP              14.228076046140 eV   |
           -------------------------------------------------

------------------------------------------------------------------------
 * finished run on 2026/07/03 at 11:11:57.968     
------------------------------------------------------------------------
 total:
 * wall-time:     0 d,  0 h,  0 min,  0.233 sec
 *  cpu-time:     0 d,  0 h,  0 min,  2.422 sec
 * ratio c/w:    10.394 speedup
 SCF:
 * wall-time:     0 d,  0 h,  0 min,  0.004 sec
 *  cpu-time:     0 d,  0 h,  0 min,  0.000 sec
 * ratio c/w:     0.000 speedup
 ANC optimizer:
 * wall-time:     0 d,  0 h,  0 min,  0.207 sec
 *  cpu-time:     0 d,  0 h,  0 min,  2.109 sec
 * ratio c/w:    10.190 speedup

normal termination of xtb
