16
Properties=species:S:1:pos:R:3:forces:R:3 energy:=T -17.834185856637=T gnorm:=T 0.000899460021=T xtb:=T 6.7.1=T (edcfbbe)=T energy=-6381.699364569953 free_energy=-6381.699364569953 pbc="F F F"
C       -0.64222398       0.99219555       0.23546271       0.09606033       0.04887702       0.28922932
C        0.04335407      -0.09147823      -0.27186499      -0.00113282      -0.00245504      -0.00939938
C        1.42666262      -0.09145019      -0.27188396       0.00112968      -0.00245779      -0.00939834
C        2.11221279       0.99223685       0.23545320      -0.09605938       0.04885783       0.28923537
C        1.42339848       1.26309811       2.11796417       0.10721716      -0.03494746      -0.26259331
C        0.04660101       1.26312751       2.11795949      -0.10721935      -0.03496815      -0.26259233
H       -0.32369357       1.99104934      -0.00066541      -0.00986624      -0.00295852       0.00986795
H       -1.70737033       0.90026893       0.39297978      -0.00166409      -0.02294931      -0.00776653
H       -0.48880051      -1.01487876      -0.45119855       0.01162875       0.00313427      -0.01706149
H        1.95885010      -1.01482463      -0.45125491      -0.01163605       0.00312370      -0.01702881
H        3.17736501       0.90034099       0.39294833       0.00166409      -0.02295809      -0.00776162
H        1.79364677       1.99108774      -0.00064074       0.00987370      -0.00297124       0.00984908
H        1.96121126       0.38369309       2.41782859      -0.00526989       0.00394315       0.01550335
H        1.97638623       2.18309950       2.15955215      -0.00454295       0.00741555      -0.01780097
H       -0.50634452       2.18315660       2.15951929       0.00453038       0.00739419      -0.01778105
H       -0.49125543       0.38375613       2.41784084       0.00528667       0.00391986       0.01549876
