16
Properties=species:S:1:pos:R:3:forces:R:3 energy:=T -17.834185856637=T gnorm:=T 0.000899460021=T xtb:=T 6.7.1=T (edcfbbe)=T energy=-6381.697946457973 free_energy=-6381.697946457973 pbc="F F F"
C       -0.65760325       0.98145284       0.21846917      -0.00002617      -0.00001549      -0.00003871
C        0.03635357      -0.09291373      -0.28107160       0.00000277      -0.00001249       0.00000362
C        1.42342147      -0.08411172      -0.27574050      -0.00000216       0.00002031       0.00000139
C        2.11330749       0.98853938       0.24096304       0.00000104       0.00002164       0.00002267
C        1.43020129       1.26776051       2.12043763      -0.00000250       0.00000707       0.00001654
C        0.05812876       1.27473344       2.14186136      -0.00000486       0.00000257      -0.00002242
H       -0.33009205       1.98473427       0.02235799       0.00003868      -0.00003945       0.00000873
H       -1.71998240       0.88320827       0.38091500      -0.00002490      -0.00006640      -0.00002588
H       -0.48515227      -1.02115782      -0.46162888      -0.00003996       0.00002198      -0.00002565
H        1.95512633      -1.00588899      -0.46561238      -0.00003751      -0.00001673       0.00005793
H        3.17904512       0.88474452       0.39148763       0.00000369       0.00002696      -0.00001030
H        1.79695548       1.99111162       0.02037038       0.00005393       0.00003740       0.00000026
H        1.96408880       0.39084458       2.43279804       0.00000382      -0.00000655      -0.00003866
H        1.98564163       2.18602149       2.15708308       0.00002008      -0.00000803      -0.00001651
H       -0.50019883       2.19147357       2.14014841       0.00001572       0.00002140       0.00006914
H       -0.48924114       0.39392632       2.41716162      -0.00000167       0.00000582      -0.00000217
