16
 energy: -17.823060060554 gnorm: 0.000523623340 xtb: 6.7.1 (edcfbbe)
C           -0.61627689940557        1.19596003402320        0.49430987930021
C            0.00727238267326        0.16796907896029       -0.39534082089021
C            1.31725895270676       -0.00921703303484       -0.33349328013763
C            2.14562876121962        0.88192934160423        0.53853692862387
C            1.49483516334715        1.17201700122038        1.90412713328156
C           -0.02882645241749        1.00496167972895        1.90427541703212
H           -0.37406534683528        2.20169461379324        0.13847823111783
H           -1.70137949959933        1.09508737749103        0.52022068634666
H           -0.62777038270610       -0.43494289208767       -1.02623683371283
H            1.82512232123207       -0.75482737964419       -0.92666173906257
H            3.14032476714050        0.45840218391508        0.68427891622534
H            2.27529671498306        1.83122329635925        0.00759658385314
H            1.92067951144389        0.50342158235016        2.65408676157192
H            1.75240783506675        2.19107666520710        2.19918214685354
H           -0.48230837137533        1.71208469781887        2.60040714375145
H           -0.28819945747589       -0.00236170770614        2.23623284583976
