16
 energy: -17.822956346966 gnorm: 0.000685981590 xtb: 6.7.1 (edcfbbe)
C           -0.77638114660573        1.00312872922003       -0.35347291905968
C            0.00830662919281       -0.06797975072163       -0.40119910696486
C            1.46170061206417       -0.06797687111036       -0.40119880738088
C            2.24638442875048        1.00313516930438       -0.35347782033805
C            1.39306997644916        1.26754288091503        2.82333113235452
C            0.07692150267897        1.26755341305769        2.82333781259532
H           -0.38188908986724        2.00351120842204       -0.31610161796006
H           -1.84921292837094        0.91574527952195       -0.35659047941433
H           -0.44811694783757       -1.04932271166346       -0.44142799980839
H            1.91812879448944       -1.04931791569186       -0.44142314166281
H            3.31921645844003        0.91575665689879       -0.35659255972322
H            1.85188832570239        2.00351601242224       -0.31611064554036
H            1.96401458984291        0.35765600482691        2.90604833758485
H            1.96526961930463        2.17691847241887        2.73940542839389
H           -0.49526507355650        2.17693744996815        2.73941550222648
H           -0.49403575067743        0.35767451221127        2.90605688469719
