16
 energy: -17.822885844677 gnorm: 0.000351651283 xtb: 6.7.1 (edcfbbe)
C           -0.77473298113406        1.00492032225451       -0.31232752420177
C            0.00854705827066       -0.06642179088511       -0.37725194117751
C            1.46146335479153       -0.06641793086768       -0.37724986783365
C            2.24473661290958        1.00492913097676       -0.31233314854514
C            1.39324511071312        1.26424865055672        2.76349547095182
C            0.07674469493991        1.26426106985181        2.76350317114238
H           -0.37871426915990        2.00406046860480       -0.26389724700202
H           -1.84778437163972        0.91903410247723       -0.31106917362534
H           -0.44864640712178       -1.04692723086537       -0.42810650525768
H            1.91866223989254       -1.04692124247502       -0.42809519503814
H            3.31778866013329        0.91904977554253       -0.31106865455110
H            1.84871104445455        2.00406731284402       -0.26391266997025
H            1.96419524651421        0.35391296187294        2.83932950037955
H            1.96554736765496        2.17436274313862        2.68981670445398
H           -0.49554228440270        2.17438498739736        2.68982814378066
H           -0.49422107681655        0.35393520957591        2.83933893649305
