16
 energy: -17.822687320067 gnorm: 0.000356470142 xtb: 6.7.1 (edcfbbe)
C           -0.77295069882325        1.00630453605014       -0.26984089537690
C            0.00882992954758       -0.06500636987201       -0.35490373162386
C            1.46118144226673       -0.06500147914273       -0.35489997618736
C            2.24295461556218        1.00631610873906       -0.26984689870611
C            1.39344054974673        1.26143037651491        2.70481255498987
C            0.07654751308104        1.26144444699191        2.70482093656076
H           -0.37584316908497        2.00443626667852       -0.21346937235211
H           -1.84612264808257        0.92146935598793       -0.26576731883733
H           -0.44932491369354       -1.04438679755442       -0.41695576185516
H            1.91934407053949       -1.04437910510924       -0.41693912601524
H            3.31612699720519        0.92148937516121       -0.26576473406941
H            1.84583955013502        2.00444546553488       -0.21348917418287
H            1.96420666843557        0.35121459051599        2.78189368372062
H            1.96575309307205        2.17171826913380        2.63421639506754
H           -0.49574702647834        2.17174387760270        2.63422909918621
H           -0.49423597342924        0.35123962276739        2.78190431967983
