16
 energy: -17.822313566467 gnorm: 0.000397917922 xtb: 6.7.1 (edcfbbe)
C           -0.77051583321986        1.00729948372070       -0.22737837563650
C            0.00924169073106       -0.06390074723301       -0.33505369127294
C            1.46077287060248       -0.06389487084148       -0.33504957060349
C            2.24051993963369        1.00731334912996       -0.22738512384414
C            1.39372929063751        1.25900998331146        2.64709231118091
C            0.07625737906127        1.25902595170423        2.64710164916957
H           -0.37207918255439        2.00437083188755       -0.16557211488971
H           -1.84381564687598        0.92369304429896       -0.21868542391235
H           -0.45021303262712       -1.04189959991547       -0.40764406491148
H            1.92023595811895       -1.04189085282934       -0.40762440581783
H            3.31382061020307        0.92371695453954       -0.21868106983198
H            1.84207313578191        2.00438206718268       -0.16559493886295
H            1.96425450102441        0.34943772806439        2.73165501350224
H            1.96603046433586        2.16916008482398        2.57557007003429
H           -0.49602406067151        2.16918873153616        2.57558370127298
H           -0.49428808418167        0.34946640061975        2.73166603442149
