16
 energy: -17.821683480713 gnorm: 0.000421170293 xtb: 6.7.1 (edcfbbe)
C           -0.76686458000407        1.00807523488987       -0.18423858072236
C            0.00985111590477       -0.06315983292795       -0.31749302917587
C            1.46016432340168       -0.06315278014080       -0.31748892548669
C            2.23686877041723        1.00809183896968       -0.18424524358241
C            1.39417872896455        1.25670227651326        2.58918407267593
C            0.07580644130365        1.25671994403625        2.58919349363765
H           -0.36677144166691        2.00411433967051       -0.12109080992613
H           -1.84029115117343        0.92607118637746       -0.16840715379440
H           -0.45149274389532       -1.03946615107344       -0.39927186766646
H            1.92151897501338       -1.03945524251554       -0.39925297222877
H            3.31029600071929        0.92609959960574       -0.16840388163062
H            1.83676469577472        2.00412764495993       -0.12111279325396
H            1.96430099095037        0.34796720958191        2.68313791632898
H            1.96635997710086        2.16685627647016        2.51816379491770
H           -0.49635228788257        2.16688829036934        2.51817709204819
H           -0.49433781492851        0.34799870521368        2.68314888785733
