16
 energy: -17.820713068479 gnorm: 0.000405323679 xtb: 6.7.1 (edcfbbe)
C           -0.76166450323466        1.00875949553745       -0.14094838920624
C            0.01074236816607       -0.06273735608135       -0.30292019174112
C            1.45927439453172       -0.06272908046537       -0.30291780998416
C            2.23166849562647        1.00877834862421       -0.14095499383546
C            1.39486459157118        1.25430451584765        2.53177457738167
C            0.07511987754673        1.25432364307622        2.53178385779535
H           -0.35981932886196        2.00400308888428       -0.08224503000035
H           -1.83515013047662        0.92863616752556       -0.11490295177361
H           -0.45317163952288       -1.03710902368044       -0.39166873455484
H            1.92320063070032       -1.03709597154813       -0.39165505266030
H            3.30515485288854        0.92866850294421       -0.11490185875220
H            1.82981089425811        2.00401771831484       -0.08226253218842
H            1.96430777545625        0.34641018632641        2.63537683040882
H            1.96669236931506        2.16488459298334        2.46552154307323
H           -0.49668327546384        2.16491930893415        2.46553368284612
H           -0.49434737250079        0.34644440277701        2.63538705318954
