16
 energy: -17.819328002362 gnorm: 0.000336922030 xtb: 6.7.1 (edcfbbe)
C           -0.75444110139558        1.00960065038035       -0.09753033434748
C            0.01204276726159       -0.06247443927308       -0.29208521461565
C            1.45797382284238       -0.06246493792909       -0.29208570883373
C            2.22444439517970        1.00962106361273       -0.09753670041713
C            1.39590873684781        1.25137514959840        2.47511153066811
C            0.07407603616736        1.25139506453067        2.47512012488543
H           -0.35108564898128        2.00442687676539       -0.05044540597516
H           -1.82781723867455        0.93159078597842       -0.05782057985377
H           -0.45526238213238       -1.03465969680043       -0.38539776342474
H            1.92529281343455       -1.03464411671566       -0.38539298378055
H            3.29782131716123        0.93162580905499       -0.05782395889810
H            1.82107581926422        2.00444211745307       -0.05045542992668
H            1.96423555154331        0.34447695530699        2.59057396378841
H            1.96698967332390        2.16280910507394        2.41758832299452
H           -0.49697855035646        2.16284550407621        2.41759758237503
H           -0.49427601148639        0.34451264888713        2.59058255535887
