16
 energy: -17.817532948576 gnorm: 0.000396279826 xtb: 6.7.1 (edcfbbe)
C           -0.74421696677209        1.01110275629337       -0.05469837440897
C            0.01389055342241       -0.06229076457687       -0.28662974978464
C            1.45612540928216       -0.06228065605784       -0.28663229369261
C            2.21421937947273        1.01112355285528       -0.05470441820745
C            1.39749630016204        1.24723634319637        2.42003911795705
C            0.07248992312855        1.24725621872989        2.42004664774975
H           -0.34026151910189        2.00596159366058       -0.02704419743851
H           -1.81718058919500        0.93537711583815        0.00187606909503
H           -0.45804424882339       -1.03196529343489       -0.38038870177218
H            1.92807423498380       -1.03194850367470       -0.38039044015108
H            3.28718397077213        0.93541303940085        0.00186891861175
H            1.81025025493971        2.00597678032849       -0.02704939461654
H            1.96390266470465        0.34158684750897        2.55169966829249
H            1.96704904276506        2.16013516737995        2.37514691919945
H           -0.49703625754907        2.16017154799239        2.37515316839914
H           -0.49394215219237        0.34162279456006        2.55170706076469
