16
 energy: -17.815412885497 gnorm: 0.000359351609 xtb: 6.7.1 (edcfbbe)
C           -0.73219246290956        1.01308052718998       -0.01129375867448
C            0.01665993558435       -0.06170653984627       -0.28393006452948
C            1.45335488977693       -0.06169592572114       -0.28393480567205
C            2.20219353869425        1.01310108001580       -0.01130025823709
C            1.39993136954506        1.24180984154196        2.36530069953730
C            0.07005739205272        1.24182916893524        2.36530762493300
H           -0.32956932965630        2.00850346899014       -0.01345848199441
H           -1.80433036253336        0.93932031870969        0.06430210730663
H           -0.46047205075144       -1.02861874387259       -0.37840486379900
H            1.93050046415821       -1.02860127764921       -0.37841159874633
H            3.27433255565988        0.93935534314916        0.06429521870305
H            1.79955616258875        2.00851846320818       -0.01345983675144
H            1.96349437358178        0.33821767398839        2.51952260599228
H            1.96717727222305        2.15653834138279        2.33796523611747
H           -0.49716266435445        2.15657370940136        2.33796984166068
H           -0.49353108366071        0.33825309057657        2.51953033415128
