16
 energy: -17.813369164842 gnorm: 0.000460668107 xtb: 6.7.1 (edcfbbe)
C           -0.71779316127686        1.01591999746208        0.03185185730118
C            0.02070946664093       -0.06137286328362       -0.28418456338500
C            1.44930264139449       -0.06136215457689       -0.28419070838015
C            2.18779257010503        1.01593951853195        0.03184555061756
C            1.40374004364352        1.23500639426601        2.31145949773554
C            0.06625200242735        1.23502447708355        2.31146478676718
H           -0.31979441044051        2.01217735823752       -0.01083279317542
H           -1.78881384898158        0.94346217369398        0.12589600517886
H           -0.46292264176538       -1.02483986455127       -0.37946920579276
H            1.93294805940009       -1.02482210266788       -0.37948014729182
H            3.25881452014438        0.94349530484878        0.12588593449288
H            1.78978014896758        2.01219178492017       -0.01083133605995
H            1.96260743293892        0.33442745499114        2.49621857818740
H            1.96692928526626        2.15236837799951        2.30907015109197
H           -0.49691261157732        2.15240167950618        2.30907074652771
H           -0.49263949688777        0.33446100353883        2.49622564618173
