16
 energy: -17.812259918842 gnorm: 0.000930443810 xtb: 6.7.1 (edcfbbe)
C           -0.70098465080590        1.01946672305678        0.07500944802834
C            0.02643448506775       -0.06282572385313       -0.28589047951973
C            1.44357517706485       -0.06281500386091       -0.28589794329151
C            2.17098278436648        1.01948491775077        0.07500325735686
C            1.40980484753324        1.22797080367855        2.25887680199920
C            0.06019000229160        1.22798741321906        2.25888085675492
H           -0.31379396416986        2.01655890130833       -0.02270331736944
H           -1.77097600775242        0.94631704087680        0.18301761765948
H           -0.46518598779724       -1.02151037152202       -0.38609763908888
H            1.93520835648041       -1.02149264787501       -0.38611119797272
H            3.24097550914054        0.94634753109792        0.18300636947369
H            1.78377916026155        2.01657298514229       -0.02269994059320
H            1.96042117918222        0.33188539473385        2.48522348454967
H            1.96515123854812        2.14929137840652        2.29257725813582
H           -0.49513333887793        2.14932226882587        2.29257438243878
H           -0.49044879053414        0.33191692901434        2.48523104143527
