16
 energy: -17.813738202088 gnorm: 0.000438383854 xtb: 6.7.1 (edcfbbe)
C           -0.68438841299976        1.02436635952480        0.11713703698219
C            0.03509348059748       -0.06786812757412       -0.28642975821895
C            1.43491246565163       -0.06785722634690       -0.28643893571281
C            2.15438458330116        1.02438274058952        0.11713083309401
C            1.41979304261737        1.22085563610401        2.20572210919108
C            0.05020598935774        1.22087009869669        2.20572443857515
H           -0.31236323082135        2.01943910695359       -0.04876703459300
H           -1.75397659701915        0.94933438177106        0.23242587839755
H           -0.46978277118602       -1.01808870015638       -0.39947651978247
H            1.93980044966789       -1.01807099863265       -0.39949252038523
H            3.22397416845901        0.94936052760233        0.23241340874719
H            1.78234812969813        2.01945313628432       -0.04876172795927
H            1.95724482751802        0.33211435411069        2.48763592486606
H            1.96179674517866        2.14700845599635        2.29177022412260
H           -0.49177724416651        2.14703590631912        2.29176282833183
H           -0.48726562585504        0.33214288875758        2.48764381434050
