16
 energy: -17.820307793211 gnorm: 0.000596792534 xtb: 6.7.1 (edcfbbe)
C           -0.66971032539023        1.02854199167976        0.15867832322197
C            0.04580343655087       -0.08148373436143       -0.28200750276441
C            1.42420064219888       -0.08147062421461       -0.28202028202715
C            2.13970506486816        1.02855863129100        0.15867182427330
C            1.43493687399576        1.22024081731221        2.15248689322852
C            0.03506450251290        1.22025454296604        2.15248815996674
H           -0.32061227346531        2.01633999940986       -0.09041630914315
H           -1.73976115797163        0.94663005861695        0.27151353674044
H           -0.47660845582156       -1.01782478700321       -0.42426509390804
H            1.94662454554738       -1.01780437916042       -0.42428467942009
H            3.20975732401801        0.94665468710080        0.27150017257791
H            1.79059675634473        2.01635655273785       -0.09040823687971
H            1.95020455715424        0.34266682554773        2.50570862652702
H            1.95318574941149        2.15204748959070        2.30832441478409
H           -0.48316473709665        2.15207461097932        2.30831140087458
H           -0.48022250285781        0.34269585750746        2.50571875194436
