16
 energy: -17.834185856637 gnorm: 0.000899460021 xtb: 6.7.1 (edcfbbe)
C           -0.66197957094336        1.01689899012223        0.20742358912398
C            0.05646753327023       -0.11288991869933       -0.26786984970490
C            1.41354839374394       -0.11283274606232       -0.26793180911390
C            2.13196566777855        1.01695454015712        0.20740796059999
C            1.45294007380216        1.24658048616447        2.09893503895497
C            0.01705620209501        1.24661840206495        2.09893555809933
H           -0.34959723324942        1.99035999617517       -0.13853988478820
H           -1.73197156311778        0.91852721152919        0.31617736900409
H           -0.48394690088167       -1.02713600810109       -0.46998102858313
H            1.95400302461334       -1.02705346318476       -0.47006123152218
H            3.20196077263658        0.91859580386464        0.31614801635994
H            1.81956464324977        1.99042760248659       -0.13850220105825
H            1.93780889331873        0.38950367568823        2.53941335004778
H            1.94126361382177        2.18512515725643        2.31452920552210
H           -0.47121329217159        2.18520527547502        2.31446802743428
H           -0.46787025796702        0.38959353506351        2.53944788962046
