16
 energy: -17.854084315501 gnorm: 0.000809990318 xtb: 6.7.1 (edcfbbe)
C           -0.65832596120456        1.00759735563353        0.25870764827309
C            0.06373767794878       -0.13731572783101       -0.24757697732805
C            1.40635243746949       -0.13733998588668       -0.24707503299746
C            2.12814542042401        1.00800150109254        0.25855632253609
C            1.46810377435349        1.26709954757897        2.04606824716533
C            0.00178630739607        1.26720966020478        2.04612154257609
H           -0.38532342958545        1.96180831795339       -0.17159479522464
H           -1.72777905515078        0.88892431058711        0.36496074463098
H           -0.49101797536742       -1.02677733384212       -0.51035480831008
H            1.96124012418710       -1.02680373657740       -0.50930815010227
H            3.19752003927219        0.88927516713869        0.36553992922813
H            1.85570995286052        1.96182827565379       -0.17373003734900
H            1.92403462299133        0.43296905992889        2.56123509066782
H            1.92901618632475        2.21229522724247        2.29852653380500
H           -0.45890844826046        2.21251409203195        2.29863816268149
H           -0.45429167365986        0.43319280909117        2.56128557974383
