16
 energy: -17.877429643677 gnorm: 0.000779366901 xtb: 6.7.1 (edcfbbe)
C           -0.65497452604563        0.99883025142713        0.30976220773659
C            0.06796262155771       -0.15504911602513       -0.22429736498411
C            1.40201984549150       -0.15481546673508       -0.22452632901263
C            2.12492555968113        0.99895630154569        0.30970845366380
C            1.47919479197381        1.28487127291213        1.99201495288257
C           -0.00924932181911        1.28488329113640        1.99204095178044
H           -0.42347806329346        1.93277488536775       -0.19103831909094
H           -1.72334883211896        0.85857689253389        0.41614326331461
H           -0.49636134960644       -1.02090199012560       -0.53937539128899
H            1.96645913053468       -1.02063110115448       -0.53951707267468
H            3.19325729768265        0.85853710096263        0.41629452131434
H            1.89373912876635        1.93292164229094       -0.19126295377023
H            1.90983060463274        0.47215955736641        2.56433037962879
H            1.91738578166775        2.23555597859183        2.27271037476226
H           -0.44737112047962        2.23561842684753        2.27273552160027
H           -0.43999154862583        0.47219061305794        2.56427680413432
