16
 energy: -17.899836407102 gnorm: 0.000635713530 xtb: 6.7.1 (edcfbbe)
C           -0.64887147282977        0.99440369657673        0.35786300467004
C            0.07051510658097       -0.16552429696231       -0.20313828475997
C            1.39952117877067       -0.16541094835919       -0.20300234831892
C            2.11877412065541        0.99469086335857        0.35771453638070
C            1.48806721781328        1.29265952059848        1.93929228916318
C           -0.01814063689430        1.29273694024123        1.93936025094308
H           -0.45177768924841        1.90905117851587       -0.19658826216064
H           -1.71728752923792        0.83824835231845        0.46231301534363
H           -0.50075230490456       -1.01046759487752       -0.55846427271237
H            1.97093673963034       -1.01036585980091       -0.55802847840834
H            3.18714239422299        0.83846473491817        0.46249503176144
H            1.92195830402660        1.90917088641431       -0.19726113424911
H            1.89590134803407        0.49971090151091        2.55870997478155
H            1.90658850021577        2.24848209879367        2.23993703213787
H           -0.43650062719920        2.24867969240574        2.23990180163554
H           -0.42607464963657        0.49994837434779        2.55889584378861
