16
 energy: -17.924819342926 gnorm: 0.000932102438 xtb: 6.7.1 (edcfbbe)
C           -0.62496000413429        1.00003930614893        0.44543796869558
C            0.07312038922594       -0.17242354580353       -0.16533953969357
C            1.39704824758129       -0.17231400178932       -0.16522235041016
C            2.09485255480460        1.00048873543945        0.44518442048379
C            1.50414381492804        1.28672309464591        1.83809841090920
C           -0.03420313896096        1.28697333632004        1.83818607032852
H           -0.47141580554586        1.87894223523989       -0.18848806273349
H           -1.69851984207549        0.82933189351892        0.52726281921094
H           -0.51267590598077       -0.98260457026920       -0.57091165839578
H            1.98304060417167       -0.98245341725782       -0.57054974880209
H            3.16844296089543        0.83003721341207        0.52704217465932
H            1.94110612319153        1.87932821460960       -0.18885033030143
H            1.86681592209310        0.51931846330932        2.52326303201409
H            1.88467444679122        2.24616136063430        2.19075223211145
H           -0.41436218402567        2.24678479941201        2.19027177099444
H           -0.39710818296034        0.52014542242932        2.52386279092558
