16
 energy: -17.917372504997 gnorm: 0.000972558229 xtb: 6.7.1 (edcfbbe)
C           -0.64042537553400        0.99374095595243        0.40352047329649
C            0.07222347913229       -0.17152456106219       -0.18290588895906
C            1.39798408403747       -0.17089915948515       -0.18399885576895
C            2.11042614966598        0.99395741167721        0.40356057433708
C            1.49600029442257        1.29490760320313        1.88659295616392
C           -0.02599547122866        1.29521773503058        1.88643488883134
H           -0.47399067068861        1.88927556592447       -0.19698371393800
H           -1.70965359101973        0.82382106520587        0.50329760544594
H           -0.50554880957224       -0.99836961685984       -0.56756253044434
H            1.97592945429173       -0.99731685523967       -0.56948764931285
H            3.17974629431999        0.82423728513625        0.50282856479569
H            1.94355474493067        1.89010547668349       -0.19571781013381
H            1.88094326106616        0.51852397853621        2.54506794923668
H            1.89519456053696        2.25437416662814        2.21054030753851
H           -0.42499266029547        2.25503956860218        2.20953979418309
H           -0.41139574406567        0.51938792006678        2.54527333472463
