16
Properties=species:S:1:pos:R:3:forces:R:3:charge:R:1 energy:=T -17.817532948576=T gnorm:=T 0.000396279826=T xtb:=T 6.7.1=T (edcfbbe)=T energy=-484.6962658557346 free_energy=-484.6962658557346 dipole="7.958178588700349e-06 0.052878807290215296 0.01816886577654406" pbc="F F F"
C       -0.70036057       1.02270264       0.07692524       0.00000672      -0.00001079      -0.00003087      -0.07398667
C        0.02626099      -0.06173926      -0.28297541      -0.00000753       0.00004824       0.00000595      -0.03303848
C        1.44218409      -0.06192889      -0.28381606       0.00000080      -0.00006044      -0.00001428      -0.03303758
C        2.16953228       1.02231864       0.07519165       0.00000483      -0.00001774      -0.00000543      -0.07398779
C        1.41122938       1.22389283       2.25350135      -0.00001093       0.00000086       0.00001249      -0.07704020
C        0.06056313       1.22401285       2.25431112       0.00000262       0.00002394       0.00001233      -0.07703812
H       -0.31253516       2.01901942      -0.02741072       0.00003259      -0.00000539      -0.00000472       0.04777393
H       -1.77027785       0.95089578       0.18732924       0.00001068      -0.00000449      -0.00000430       0.03455573
H       -0.46685347      -1.02029656      -0.37743871      -0.00002043       0.00000246       0.00002142       0.02781712
H        1.93492962      -1.02062102      -0.37884220      -0.00000814      -0.00000293      -0.00000294       0.02781693
H        3.23955848       0.95021138       0.18433295      -0.00000002       0.00003103      -0.00000859       0.03455570
H        1.78186011       2.01874026      -0.02870841      -0.00003165       0.00001123       0.00003443       0.04777294
H        1.96155124       0.32809950       2.48183554      -0.00001898      -0.00000432      -0.00000763       0.03482711
H        1.96620070       2.14531996       2.29048238       0.00003897      -0.00000881       0.00000114       0.03909076
H       -0.49420123       2.14553685       2.29198032      -0.00002748      -0.00000607       0.00000321       0.03909259
H       -0.48964173       0.32831415       2.48330168       0.00002793       0.00000321      -0.00001221       0.03482602
