16
Properties=species:S:1:pos:R:3:forces:R:3 energy:=T -17.817532948576=T gnorm:=T 0.000396279826=T xtb:=T 6.7.1=T (edcfbbe)=T energy=-6380.708288074984 free_energy=-6380.708288074984 pbc="F F F"
C       -0.68097355       0.92305583       0.13572223      -0.00005712       0.00004387      -0.00001953
C        0.05332703      -0.11091996      -0.28624902       0.00002453      -0.00002181       0.00000597
C        1.48425741      -0.05141996      -0.33468092       0.00002225      -0.00004617       0.00000800
C        2.17587145       1.05645163      -0.07233860      -0.00000116      -0.00002629       0.00001597
C        1.35655328       1.17854883       2.38268229       0.00002677       0.00003984      -0.00000839
C        0.04410318       1.35601724       2.23673596      -0.00006152       0.00000230       0.00002307
H       -0.28930658       1.91838827       0.20008955      -0.00005094       0.00004354       0.00001628
H       -1.74333631       0.81630553       0.29003547      -0.00004740       0.00003291       0.00003240
H       -0.42580568      -1.06692744      -0.41783950       0.00003609      -0.00000368      -0.00002252
H        2.03081663      -0.97431049      -0.45237243       0.00006127      -0.00005778      -0.00000709
H        3.24960208       1.01842854       0.00392731       0.00000016       0.00004315      -0.00001872
H        1.72249776       2.02707367      -0.00415427       0.00004339      -0.00000558      -0.00000996
H        1.78167214       0.20643666       2.56786963      -0.00007055      -0.00001652      -0.00002544
H        2.02584664       2.02288193       2.40758490       0.00001782       0.00000028      -0.00001043
H       -0.37338107       2.34618231       2.18801488       0.00002417       0.00002888       0.00000542
H       -0.65174441       0.54828594       2.35497249       0.00003224      -0.00005695       0.00001496
