16
Properties=species:S:1:pos:R:3:forces:R:3:charge:R:1 energy:=T -17.834185856637=T gnorm:=T 0.000899460021=T xtb:=T 6.7.1=T (edcfbbe)=T energy=-484.6962658565005 free_energy=-484.6962658565005 dipole="-5.920579257434621e-07 0.053159366974220135 0.017328614242701032" pbc="F F F"
C       -0.69993712       1.01057694       0.07303823       0.00001334       0.00002747      -0.00000916      -0.07398775
C        0.02704348      -0.07934384      -0.26914821       0.00001170      -0.00002082      -0.00002346      -0.03303813
C        1.44296843      -0.07932712      -0.26916231      -0.00001656       0.00004804      -0.00001296      -0.03303815
C        2.16993183       1.01060505       0.07302643      -0.00002955       0.00001169      -0.00001421      -0.07398795
C        1.41033147       1.24660785       2.24740412       0.00000364      -0.00006624       0.00000002      -0.07703873
C        0.05966444       1.24661351       2.24740588       0.00000268      -0.00007370       0.00000295      -0.07703863
H       -0.31217019       2.00515975      -0.04689534      -0.00002965       0.00001309       0.00001369       0.04777388
H       -1.76990995       0.94039198       0.18394156       0.00001415      -0.00002733      -0.00001162       0.03455573
H       -0.46588551      -1.03935377      -0.34866372       0.00002884       0.00004441       0.00003157       0.02781676
H        1.93591783      -1.03932407      -0.34869420      -0.00001526       0.00001051       0.00003402       0.02781685
H        3.23990741       0.94043702       0.18391580      -0.00001669      -0.00002080      -0.00001473       0.03455559
H        1.78214623       2.00518296      -0.04688690       0.00002566       0.00000596       0.00000579       0.04777390
H        1.96056357       0.35457821       2.49022736       0.00005702      -0.00000197       0.00004335       0.03482699
H        1.96523655       2.16853690       2.27012983      -0.00007202       0.00003115      -0.00004882       0.03909127
H       -0.49523365       2.16854720       2.27012733       0.00008137       0.00002857      -0.00004522       0.03909088
H       -0.49057482       0.35458999       2.49023415      -0.00005868      -0.00001004       0.00004882       0.03482748
