60
 energy: -101.735152817859 gnorm: 0.000676850137 xtb: 6.7.1 (edcfbbe)
O           -1.20322652409816       -2.08156918074820       -2.77124738657597
H           -1.85817709804682       -2.61941760778034       -3.21473426302023
H           -1.52723863243721       -1.15949752214182       -2.80000365011511
O           -2.30229053153193       -2.18690835548106       -0.02791729260823
H           -2.30582417503911       -1.21707167685927       -0.00751016625134
H           -1.52461211637796       -2.43090610318126       -0.55445420113117
O           -1.70353504009454       -2.69182539961773        2.46251366950652
H           -1.93891336930523       -2.53842365861492        1.50274141267151
H           -2.43709527357879       -3.17319938688836        2.84417000942290
O           -1.77232917849650        0.60221766076682       -2.60018614571456
H           -0.79767371651049        0.73816162914882       -2.72686380710703
H           -1.88188922419208        0.50111791670750       -1.62424563125194
O           -1.78456616244084        0.51877181459750        0.05657923484165
H           -0.80977672032957        0.35070700127914        0.08433478520399
H           -1.89093409411462        1.46589869640096        0.24939009842649
O           -0.29172231951901       -0.42924504310784        3.29368875034005
H           -0.89094997853960       -1.13624817106505        3.00386099376274
H           -0.74646415271257        0.40831013632263        3.13113902572063
O           -2.29709909344947        3.18695539334284       -2.42445472916031
H           -2.19351522249332        2.20968810280245       -2.57435610130016
H           -2.96544798898034        3.48972319367023       -3.03833748464415
O           -1.79246081474792        3.25365019301163        0.32060634450249
H           -2.14766933639204        3.35525739368906       -0.57730999646313
H           -0.86759575911917        3.57292660979472        0.25390794307001
O           -1.29120807943272        2.21596518926498        2.83510423755358
H           -1.74659432886239        2.69515015594089        3.52780481169096
H           -1.60388109971602        2.57845191456379        1.98896279030882
O            1.43153599603599       -1.54722052588825       -3.47148939420717
H            0.54457371661442       -1.88371413461595       -3.25511823503312
H            2.02544807544434       -1.92247789826198       -2.80493875069015
O            0.47485045029360       -2.68978292836658       -0.28504979753531
H            0.70305952983003       -2.91863298638858        0.63288796854776
H            1.22190382422717       -2.96210134929176       -0.83424105505880
O            0.99479483539684       -3.05245748838363        2.42539128739093
H            0.02926636691303       -3.15775791174920        2.50720446765893
H            1.19093573791505       -2.28774255771352        2.97581288021984
O            0.85883276133084        0.90921242996233       -2.65612210703993
H            1.17662870794382        0.10565733472552       -3.12915139507091
H            0.96782525518148        0.68283353592587       -1.71007449352434
O            0.77003726763236       -0.04763475993210       -0.15975899396292
H            0.66623586726124       -1.01913431722066       -0.28650223220026
H            1.33316093811583        0.06255878598355        0.63809872582644
O            2.07698525382257        0.13572479307920        2.14193072362388
H            1.28364561584248       -0.12257584896071        2.65590162448792
H            2.10980969025732        1.11056595752806        2.23993165928062
O            0.47150052072083        3.59424669770195       -2.57702479169716
H            0.76055490628989        2.67846024710472       -2.74162836796650
H           -0.49838246070640        3.57307422253449       -2.62996660662514
O            0.76217618496306        4.07408367771627       -0.03270021775411
H            0.76090966868692        3.87154602130616       -1.01155222140096
H            1.03358077980783        4.98894147989547        0.04612234851285
O            1.45764742955871        2.72577566931557        2.31388880984079
H            1.35813625437105        3.14428537997975        1.44539155795633
H            0.55507937251152        2.55592614625637        2.62417288187852
O            2.98330482168512       -2.74619635413875       -1.43491476051456
H            3.74956673353179       -3.22001204313904       -1.75734934628013
H            3.22377945484685       -2.40253334449203       -0.54231683116618
O            3.39546201976831       -2.07144387854953        1.11598859741238
H            2.83429231928601       -2.69754298922200        1.58879092979575
H            3.12861466513080       -1.19589669851644        1.44111700354497
