16
Properties=species:S:1:pos:R:3:forces:R:3:charge:R:1 energy:=T -17.822955842371=T gnorm:=T 0.000913890081=T xtb:=T 6.7.1=T (edcfbbe)=T energy=-484.6962658599754 free_energy=-484.6962658599754 dipole="-2.6056345090404808e-06 0.0527982342937232 0.01840009882871952" pbc="F F F"
C       -0.69994400       1.02572517       0.07692742      -0.00000569       0.00000929      -0.00002747      -0.07398687
C        0.02703002      -0.05707152      -0.28718968      -0.00003166      -0.00001570       0.00002241      -0.03303881
C        1.44295119      -0.05707807      -0.28720251       0.00000763      -0.00001963       0.00002003      -0.03303803
C        2.16994682       1.02570826       0.07689708       0.00000312       0.00000101      -0.00001066      -0.07398795
C        1.41033748       1.21783448       2.25559614       0.00006132      -0.00000541      -0.00000267      -0.07703902
C        0.05966979       1.21783332       2.25559766       0.00006580      -0.00000737      -0.00002310      -0.07703840
H       -0.31219404       2.02253123      -0.02292559       0.00001506      -0.00002264       0.00000616       0.04777367
H       -1.76991448       0.95329649       0.18640071      -0.00001256       0.00004554      -0.00000183       0.03455572
H       -0.46590374      -1.01528047      -0.38603478      -0.00002021       0.00001706      -0.00000650       0.02781677
H        1.93587110      -1.01529241      -0.38606259       0.00003372       0.00001013      -0.00000225       0.02781679
H        3.23991803       0.95326374       0.18634794       0.00002559       0.00004994       0.00001581       0.03455561
H        1.78220768       2.02251910      -0.02293734      -0.00002824       0.00000859       0.00000172       0.04777362
H        1.96060192       0.32110779       2.48038206      -0.00004695       0.00002079       0.00003203       0.03482697
H        1.96521276       2.13913884       2.29690070      -0.00003493      -0.00006051      -0.00004580       0.03909039
H       -0.49520298       2.13913521       2.29691209      -0.00002214       0.00002562      -0.00003528       0.03909176
H       -0.49058755       0.32110737       2.48039070      -0.00000986      -0.00005672       0.00005740       0.03482779
