24
Properties=species:S:1:pos:R:3 energy:=T -46.207409440612=T gnorm:=T 0.079024373849=T xtb:=T 6.7.1pre=T (5071a88)=T pbc="F F F"
O        3.47329674       4.12588197       3.51993582
H        3.09330375       3.50683355       2.92657897
H        3.00585034       4.31367514       4.33414020
O        4.29209319       5.97560986       1.65295897
H        3.78278630       5.24111735       1.29951599
H        5.13308169       5.62285349       1.88804876
O        2.57990204       1.05852037       4.20101325
H        2.03289681       1.75150140       4.52363713
H        3.40235502       1.39867865       3.79811100
O        5.43005751       4.70329686       7.18231987
H        5.73453178       3.92003786       6.72235465
H        6.05950087       4.84573716       0.14438550
O        1.30475791       5.93289438       3.69000304
H        2.06526456       6.50489847       3.85774914
H        0.70666286       6.52108938       3.22972112
O        4.65090084       0.68075827       2.53473260
H        3.85482690       0.18961633       2.25079112
H        5.22627066       0.03099705       3.00868797
O        6.46712076       3.42216587       1.89000850
H        5.86709585       3.89307612       2.53123234
H        6.44737174       2.47610779       2.10588977
O        2.89293897       5.30410825       6.17557102
H        3.69697142       5.47385148       6.69961769
H        2.31575725       6.03724844       6.40595186
