16
Properties=species:S:1:pos:R:3:forces:R:3:charge:R:1 energy:=T -17.815412885497=T gnorm:=T 0.000359351609=T xtb:=T 6.7.1=T (edcfbbe)=T energy=-484.6962658346018 free_energy=-484.6962658346018 dipole="1.0177958372565951e-05 0.05288804290388628 0.018152788859047524" pbc="F F F"
C       -0.70036673       1.02222275       0.07677055      -0.00000216       0.00001049       0.00000016      -0.07398816
C        0.02643315      -0.06224414      -0.28269108       0.00000386      -0.00126443       0.00013257      -0.03303827
C        1.44235582      -0.06221137      -0.28346992       0.00000973       0.00125896      -0.00013157      -0.03303818
C        2.16950927       1.02227758       0.07521027       0.00000310      -0.00000877       0.00000900      -0.07398634
C        1.41113173       1.22438734       2.25339553       0.00000424       0.00000496      -0.00000814      -0.07703734
C        0.06046448       1.22452211       2.25413015      -0.00000010      -0.00000503      -0.00000351      -0.07704079
H       -0.31268253       2.01855610      -0.02792676       0.00000244       0.00001260       0.00000667       0.04777368
H       -1.77027663       0.95029703       0.18716506       0.00000593       0.00000962      -0.00000853       0.03455536
H       -0.46653186      -1.02091230      -0.37681165      -0.00000057       0.00001049      -0.00000889       0.02781696
H        1.93526220      -1.02085352      -0.37816066      -0.00000632      -0.00000766       0.00000739       0.02781696
H        3.23954594       0.95039500       0.18439738      -0.00000292      -0.00000729       0.00001631       0.03455601
H        1.78166798       2.01859929      -0.02902592       0.00000265      -0.00001130      -0.00001024       0.04777352
H        1.96141693       0.32865350       2.48205697       0.00000468       0.00001493       0.00000256       0.03482480
H        1.96612603       2.14581049       2.29012694      -0.00001538       0.00001004      -0.00000196       0.03909427
H       -0.49429520       2.14606512       2.29141599      -0.00001564      -0.00001121       0.00000099       0.03908903
H       -0.48976059       0.32891356       2.48341714       0.00000647      -0.00001639      -0.00000281       0.03482849
