16
 xtb: 6.7.1 (edcfbbe)
C           -0.74277526324474        1.00770260154684       -0.04323509864774
C            0.00977453965864       -0.05918195812585       -0.28609715395097
C            1.46015816897882       -0.05913060763071       -0.28592867439929
C            2.21256662693367        1.00778635517566       -0.04289552423677
C            1.38831711473185        1.23879247279018        2.38114604455213
C            0.08196523860720        1.23893705916114        2.38135884924465
H           -0.31560117109223        2.01416448297841       -0.01821163020091
H           -1.78232714353637        0.94624263483042        0.15108230974598
H           -0.46375412511578       -1.02448452102264       -0.37416269823991
H            1.93378487319968       -1.02439618179671       -0.37393700697364
H            3.25209413430778        0.94638764007010        0.15168525626252
H            1.78531039206265        2.01422699703741       -0.01790215442717
H            1.96198710941485        0.32880444281042        2.48191652390362
H            1.96683148416615        2.14723865596634        2.29381326399970
H           -0.49640498583099        2.14747000168876        2.29420000996829
H           -0.49182373735312        0.32905395940050        2.48231613186524
