16
Properties=species:S:1:pos:R:3 energy:=T -17.834185856637=T gnorm:=T 0.000899460021=T xtb:=T 6.7.1=T (edcfbbe)=T pbc="F F F"
C       -0.65760325       0.98145284       0.21846917
C        0.03635357      -0.09291373      -0.28107160
C        1.42342147      -0.08411172      -0.27574050
C        2.11330749       0.98853938       0.24096304
C        1.43020129       1.26776051       2.12043763
C        0.05812876       1.27473344       2.14186136
H       -0.33009205       1.98473427       0.02235799
H       -1.71998240       0.88320827       0.38091500
H       -0.48515227      -1.02115782      -0.46162888
H        1.95512633      -1.00588899      -0.46561238
H        3.17904512       0.88474452       0.39148763
H        1.79695548       1.99111162       0.02037038
H        1.96408880       0.39084458       2.43279804
H        1.98564163       2.18602149       2.15708308
H       -0.50019883       2.19147357       2.14014841
H       -0.48924114       0.39392632       2.41716162
