16
Properties=species:S:1:pos:R:3 energy:=T -17.834185856637=T gnorm:=T 0.000899460021=T xtb:=T 6.7.1=T (edcfbbe)=T pbc="F F F"
C       -0.66825873       0.97566818       0.19051450
C        0.03087395      -0.08974808      -0.28302964
C        1.43195470      -0.08343084      -0.27857931
C        2.12663262       0.98021717       0.20264862
C        1.42094146       1.27469509       2.15760274
C        0.06212359       1.27993405       2.17101958
H       -0.32054708       1.98211599       0.04904904
H       -1.72908265       0.88058215       0.36045477
H       -0.48558710      -1.02395525      -0.44508894
H        1.95466037      -1.01643399      -0.44012458
H        3.18816511       0.88280491       0.36911680
H        1.78001652       1.98717738       0.05619717
H        1.96751785       0.39130722       2.42458051
H        1.98902221       2.18475808       2.14719860
H       -0.50251316       2.19192396       2.14598461
H       -0.49092128       0.39639763       2.42421499
