16
Properties=species:S:1:pos:R:3 energy:=T -17.834185856637=T gnorm:=T 0.000899460021=T xtb:=T 6.7.1=T (edcfbbe)=T pbc="F F F"
C       -0.66293099       0.97856051       0.20449183
C        0.03361376      -0.09133091      -0.28205062
C        1.42768809      -0.08377128      -0.27715991
C        2.11997005       0.98437827       0.22180583
C        1.42557137       1.27122780       2.13902018
C        0.06012618       1.27733374       2.15644047
H       -0.32531957       1.98342513       0.03570351
H       -1.72453253       0.88189521       0.37068489
H       -0.48536969      -1.02255654      -0.45335891
H        1.95489335      -1.01116149      -0.45286848
H        3.18360511       0.88377471       0.38030221
H        1.78848600       1.98914450       0.03828378
H        1.96580332       0.39107590       2.42868928
H        1.98733192       2.18538979       2.15214084
H       -0.50135599       2.19169876       2.14306651
H       -0.49008121       0.39516197       2.42068831
