16
Properties=species:S:1:pos:R:3 energy:=T -17.834185856637=T gnorm:=T 0.000899460021=T xtb:=T 6.7.1=T (edcfbbe)=T pbc="F F F"
C       -0.65227551       0.98434518       0.23244651
C        0.03909338      -0.09449655      -0.28009258
C        1.41915486      -0.08445216      -0.27432110
C        2.10664492       0.99270048       0.26012025
C        1.43483121       1.26429322       2.10185507
C        0.05613135       1.27213313       2.12728224
H       -0.33486454       1.98604341       0.00901246
H       -1.71543227       0.88452133       0.39114512
H       -0.48493486      -1.01975911      -0.46989885
H        1.95535931      -1.00061649      -0.47835628
H        3.17448513       0.88571432       0.40267304
H        1.80542496       1.99307874       0.00245699
H        1.96237427       0.39061325       2.43690681
H        1.98395133       2.18665320       2.16202533
H       -0.49904166       2.19124837       2.13723030
H       -0.48840107       0.39269066       2.41363494
