16
Properties=species:S:1:pos:R:3 energy:=T -17.834185856637=T gnorm:=T 0.000899460021=T xtb:=T 6.7.1=T (edcfbbe)=T pbc="F F F"
C       -0.64694777       0.98723751       0.24642385
C        0.04183319      -0.09607938      -0.27911356
C        1.41488825      -0.08479260      -0.27290169
C        2.09998235       0.99686159       0.27927746
C        1.43946113       1.26082593       2.08327252
C        0.05413393       1.26953282       2.11270313
H       -0.33963702       1.98735256      -0.00433306
H       -1.71088215       0.88583440       0.40137524
H       -0.48471745      -1.01836040      -0.47816881
H        1.95559228      -0.99534399      -0.49110019
H        3.16992514       0.88668413       0.41385845
H        1.81389443       1.99504586      -0.01545640
H        1.96065974       0.39038193       2.44101557
H        1.98226104       2.18728490       2.16696757
H       -0.49788449       2.19102317       2.13431220
H       -0.48756100       0.39145500       2.41010825
