16
Properties=species:S:1:pos:R:3 energy:=T -17.834185856637=T gnorm:=T 0.000899460021=T xtb:=T 6.7.1=T (edcfbbe)=T pbc="F F F"
C       -0.66881655       1.01974781       0.18917864
C        0.02997479      -0.06950968      -0.24738850
C        1.40404886      -0.09058292      -0.25690045
C        2.13095088       0.99374746       0.23381902
C        1.43267734       1.27436977       2.11688255
C        0.06542763       1.26873843       2.11643846
H       -0.29671930       2.00139397       0.02955854
H       -1.69565563       0.87628616       0.35285232
H       -0.53061227      -1.00261710      -0.44963665
H        1.91462598      -1.00841299      -0.46344130
H        3.15566942       0.83855479       0.41087129
H        1.80470492       2.00507472      -0.00360958
H        1.93140337       0.39325638       2.43555885
H        1.97236617       2.18856889       2.17609170
H       -0.47489119       2.23367438       2.11648855
H       -0.49411570       0.34557126       2.40762099
