16
Properties=species:S:1:pos:R:3 energy:=T -17.834185856637=T gnorm:=T 0.000899460021=T xtb:=T 6.7.1=T (edcfbbe)=T pbc="F F F"
C       -0.69723482       0.91434773       0.24803474
C        0.04154150      -0.09823180      -0.25067366
C        1.40630328      -0.10446497      -0.24862106
C        2.08744890       0.99073640       0.20883053
C        1.43700878       1.20452760       2.15673543
C        0.06418635       1.30450554       2.16373781
H       -0.32866459       1.95838981       0.03333353
H       -1.69333170       0.85094450       0.40696544
H       -0.50413891      -1.04721308      -0.48065769
H        1.91592028      -1.03036626      -0.46448964
H        3.17393097       0.87838504       0.35258306
H        1.83698801       2.06522133      -0.00166488
H        1.92109467       0.38938439       2.45928446
H        1.94802410       2.18624272       2.15313294
H       -0.49842438       2.18195073       2.13888800
H       -0.51585340       0.35347551       2.41022428
