16
Properties=species:S:1:pos:R:3:forces:R:3 energy:=T -17.817532948576=T gnorm:=T 0.000396279826=T xtb:=T 6.7.1=T (edcfbbe)=T energy=-6380.59815128859 free_energy=-6380.59815128859 pbc="F F F"
C       -0.70804896       1.01869931      -0.06830545       0.27400267       0.06946882       0.83240245
C        0.01399689      -0.07327733      -0.29588282       0.00041343       0.00590696      -0.00634347
C        1.45601675      -0.07326845      -0.29588798      -0.00041643       0.00590694      -0.00633858
C        2.17804887       1.01871625      -0.06830525      -0.27400601       0.06945765       0.83240336
C        1.39836902       1.23653320       2.42002683       0.26894051      -0.07567831      -0.83360217
C        0.07162153       1.23654840       2.42002676      -0.26893457      -0.07569082      -0.83360271
H       -0.28462863       2.00478089      -0.02571460       0.01020334       0.00951449      -0.00841677
H       -1.78074513       0.95305153       0.01890592       0.00281965      -0.00723659      -0.00289626
H       -0.49812516      -1.02013834      -0.36426918       0.00310385       0.00539966       0.01136453
H        1.96815118      -1.02012244      -0.36428073      -0.00310803       0.00540239       0.01135990
H        3.25074664       0.95308291       0.01889840      -0.00282027      -0.00723994      -0.00289414
H        1.75461602       2.00479224      -0.02570856      -0.01020542       0.00951184      -0.00840583
H        1.95851368       0.32983080       2.56640086      -0.01233038      -0.00656331       0.00728631
H        1.95236014       2.15768157       2.34884999      -0.00584285      -0.00079340       0.00020339
H       -0.48234871       2.15770891       2.34884503       0.00584263      -0.00079754       0.00019939
H       -0.48854412       0.32985909       2.56640077       0.01233788      -0.00656883       0.00728059
