16
Properties=species:S:1:pos:R:3 energy:=T -17.834185856637=T gnorm:=T 0.000899460021=T xtb:=T 6.7.1=T (edcfbbe)=T pbc="F F F"
C       -0.64052450       0.98868128       0.25096520
C        0.04617610      -0.09064366      -0.27330751
C        1.42383361      -0.09062921      -0.27331414
C        2.11051757       0.98870616       0.25095877
C        1.42429896       1.26478765       2.10475445
C        0.04570173       1.26479198       2.10475591
H       -0.32894925       1.98823407       0.00959166
H       -1.70305189       0.88534024       0.41815695
H       -0.48507110      -1.00966172      -0.47657963
H        1.95509851      -1.00963378      -0.47659579
H        3.17304741       0.88538649       0.41813932
H        1.79892005       1.98825659       0.00959280
H        1.96012810       0.39205642       2.42810029
H        1.97263780       2.18836715       2.13834061
H       -0.50263094       2.18837326       2.13833295
H       -0.49013216       0.39206564       2.42810817
