16
Properties=species:S:1:pos:R:3 energy:=T -17.834185856637=T gnorm:=T 0.000899460021=T xtb:=T 6.7.1=T (edcfbbe)=T pbc="F F F"
C       -0.63212615       0.99543050       0.27958222
C        0.05234509      -0.09356665      -0.27174556
C        1.41766466      -0.09355250      -0.27175221
C        2.10211959       0.99545489       0.27957510
C        1.43489703       1.25929944       2.07331161
C        0.03510333       1.25930314       2.07331223
H       -0.34138368       1.99030610      -0.01545900
H       -1.69900133       0.88875631       0.42658834
H       -0.48446240      -1.00414655      -0.49781266
H        1.95448929      -1.00411874      -0.49782856
H        3.16899698       0.88880238       0.42657010
H        1.81135368       1.99032909      -0.01545684
H        1.95479914       0.39513588       2.45363981
H        1.96595438       2.19409688       2.16572649
H       -0.49594777       2.19410273       2.16571808
H       -0.48480272       0.39514529       2.45364923
