16
Properties=species:S:1:pos:R:3 energy:=T -17.834185856637=T gnorm:=T 0.000899460021=T xtb:=T 6.7.1=T (edcfbbe)=T pbc="F F F"
C       -0.63632532       0.99205589       0.26527371
C        0.04926059      -0.09210515      -0.27252653
C        1.42074913      -0.09209086      -0.27253317
C        2.10631858       0.99208053       0.26526694
C        1.42959799       1.26204355       2.08903303
C        0.04040253       1.26204756       2.08903407
H       -0.33516646       1.98927008      -0.00293367
H       -1.70102661       0.88704827       0.42237264
H       -0.48476675      -1.00690414      -0.48719614
H        1.95479390      -1.00687626      -0.48721218
H        3.17102220       0.88709443       0.42235471
H        1.80513687       1.98929284      -0.00293202
H        1.95746362       0.39359615       2.44087005
H        1.96929609       2.19123201       2.15203355
H       -0.49928936       2.19123800       2.15202552
H       -0.48746744       0.39360546       2.44087870
