16
Properties=species:S:1:pos:R:3 energy:=T -17.834185856637=T gnorm:=T 0.000899460021=T xtb:=T 6.7.1=T (edcfbbe)=T pbc="F F F"
C       -0.64472368       0.98530667       0.23665670
C        0.04309160      -0.08918216      -0.27408849
C        1.42691808      -0.08916757      -0.27409510
C        2.11471656       0.98533180       0.23665060
C        1.41899993       1.26753176       2.12047586
C        0.05100093       1.26753640       2.12047775
H       -0.32273203       1.98719805       0.02211699
H       -1.70507717       0.88363220       0.41394125
H       -0.48537545      -1.01241930      -0.46596311
H        1.95540311      -1.01239130      -0.46597941
H        3.17507262       0.88367854       0.41392394
H        1.79270323       1.98722034       0.02211762
H        1.96279259       0.39051668       2.41533053
H        1.97597951       2.18550228       2.12464768
H       -0.50597253       2.18550852       2.12464039
H       -0.49279689       0.39052581       2.41533764
