16
Properties=species:S:1:pos:R:3 energy:=T -17.834185856637=T gnorm:=T 0.000899460021=T xtb:=T 6.7.1=T (edcfbbe)=T pbc="F F F"
C       -0.64892285       0.98193206       0.22234819
C        0.04000711      -0.08772066      -0.27486947
C        1.43000256      -0.08770593      -0.27487607
C        2.11891555       0.98195743       0.22234243
C        1.41370089       1.27027587       2.13619728
C        0.05630013       1.27028083       2.13619959
H       -0.31651482       1.98616204       0.03464232
H       -1.70710246       0.88192416       0.40972556
H       -0.48567980      -1.01517689      -0.45534660
H        1.95570772      -1.01514882      -0.45536303
H        3.17709784       0.88197059       0.40970855
H        1.78648642       1.98618408       0.03464244
H        1.96545707       0.38897695       2.40256076
H        1.97932122       2.18263742       2.11095474
H       -0.50931412       2.18264378       2.11094782
H       -0.49546161       0.38898598       2.40256711
