16
Properties=species:S:1:pos:R:3 energy:=T -17.834185856637=T gnorm:=T 0.000899460021=T xtb:=T 6.7.1=T (edcfbbe)=T pbc="F F F"
C       -0.66368285       0.96808903       0.22759146
C        0.03910971      -0.07516676      -0.23907950
C        1.43666736      -0.01036976      -0.20192586
C        2.12011525       0.97929409       0.23888684
C        1.38556961       1.24202299       2.11295741
C        0.00150502       1.30747185       2.10144600
H       -0.37751674       1.96855042      -0.01667662
H       -1.64701159       0.89831907       0.41268161
H       -0.48817587      -1.03670779      -0.44145584
H        1.97652204      -1.00385477      -0.45348308
H        3.20707535       0.88364125       0.43946528
H        1.82095819       1.99389165       0.03768840
H        2.01874295       0.37922231       2.45789592
H        2.01821898       2.21302954       2.14022132
H       -0.51788344       2.18403647       2.15075550
H       -0.50674651       0.36368150       2.47358618
