16
Properties=species:S:1:pos:R:3 energy:=T -17.834185856637=T gnorm:=T 0.000899460021=T xtb:=T 6.7.1=T (edcfbbe)=T pbc="F F F"
C       -0.66115134       1.04717361       0.22943750
C        0.09188449      -0.13399829      -0.25683862
C        1.39336086      -0.04367649      -0.27353021
C        2.15189713       1.00304661       0.19594230
C        1.41834117       1.23972768       2.11426652
C        0.04024485       1.30004918       2.09784763
H       -0.32867820       2.00807391       0.00570335
H       -1.68865754       0.89403142       0.42153753
H       -0.49721826      -1.00917041      -0.48245713
H        1.91312739      -0.97049979      -0.46931048
H        3.23034729       0.90787633       0.45961636
H        1.77037645       1.93853982      -0.02619412
H        1.93134458       0.38510471       2.44890230
H        1.98626556       2.23113909       2.13864367
H       -0.48241830       2.18974609       2.10473619
H       -0.48333586       0.41124682       2.36049286
