16
Properties=species:S:1:pos:R:3:forces:R:3 energy:=T -17.815412885497=T gnorm:=T 0.000359351609=T xtb:=T 6.7.1=T (edcfbbe)=T energy=-6381.875916843142 free_energy=-6381.875916843142 pbc="F F F"
C       -0.70092327       1.01309297      -0.02343125       0.38931665       0.10671070       1.11451865
C        0.01556391      -0.07406904      -0.30882461      -0.02586830       0.00593118      -0.01091634
C        1.45444728      -0.07405929      -0.30882943       0.02586358       0.00592954      -0.01090863
C        2.17092057       1.01311059      -0.02343101      -0.38931750       0.10669476       1.11451838
C        1.40088336       1.24077563       2.36390552       0.37881621      -0.10805209      -1.12693097
C        0.06911138       1.24079070       2.36390309      -0.37881281      -0.10807054      -1.12693419
H       -0.28912885       2.00436128      -0.00408859      -0.00027426       0.00390314       0.00172395
H       -1.76889203       0.94488206       0.10301508       0.01448583      -0.00197375       0.00884634
H       -0.49783156      -1.01959056      -0.38397785       0.00161093      -0.00670810      -0.00063330
H        1.96785592      -1.01957322      -0.38398980      -0.00161426      -0.00670653      -0.00063513
H        3.23889102       0.94491372       0.10300907      -0.01448673      -0.00197694       0.00884850
H        1.75911324       2.00437351      -0.00408228       0.00027308       0.00390088       0.00173136
H        1.95987019       0.33769358       2.53830221      -0.00993054      -0.00022627       0.01647704
H        1.96045449       2.16001336       2.31511344      -0.00738406       0.00044066      -0.00308707
H       -0.49043877       2.16004100       2.31510546       0.00738373       0.00043501      -0.00309133
H       -0.48989687       0.33772225       2.53830096       0.00993846      -0.00023167       0.01647273
