16
Properties=species:S:1:pos:R:3:forces:R:3 energy:=T -17.815412885497=T gnorm:=T 0.000359351609=T xtb:=T 6.7.1=T (edcfbbe)=T energy=-6381.84810502324 free_energy=-6381.84810502324 pbc="F F F"
C       -0.67306724       0.96484967       0.12130844      -0.00001890       0.00001980       0.00000091
C        0.03938405      -0.08723692      -0.30263229       0.00001758      -0.00003870       0.00001747
C        1.47235737      -0.06773783      -0.32436657      -0.00000073       0.00000054      -0.00001996
C        2.18616844       1.02850475      -0.06164961      -0.00001409       0.00000125      -0.00000796
C        1.36713672       1.22052554       2.36084937       0.00001765      -0.00002007      -0.00001047
C        0.03721113       1.29356314       2.24778910       0.00000994       0.00001428       0.00000405
H       -0.27544133       1.95897799       0.16233455       0.00001978      -0.00001764       0.00000458
H       -1.74018736       0.88018512       0.25908994      -0.00001216       0.00000967      -0.00001113
H       -0.46482346      -1.02943054      -0.44242891      -0.00000422       0.00000516       0.00000593
H        1.99563165      -1.00705502      -0.41282368       0.00001137      -0.00001177      -0.00000989
H        3.25424754       0.96606397       0.05663850      -0.00001321       0.00000051       0.00001014
H        1.76569214       2.01586796      -0.04234718       0.00002200       0.00002046      -0.00000444
H        1.86417028       0.28636985       2.55897225       0.00005299      -0.00002014      -0.00000462
H        1.97570638       2.10972496       2.36051525      -0.00002595      -0.00000818       0.00002027
H       -0.46300714       2.24589112       2.21929908      -0.00005680       0.00001113       0.00000191
H       -0.58117919       0.43541478       2.43945175      -0.00000524       0.00003368       0.00000321
