16
Properties=species:S:1:pos:R:3:forces:R:3 energy:=T -17.815412885497=T gnorm:=T 0.000359351609=T xtb:=T 6.7.1=T (edcfbbe)=T energy=-6382.410540204214 free_energy=-6382.410540204214 pbc="F F F"
C       -0.70246584       1.01480802      -0.02339107       0.35976782       0.10040635       1.02628360
C        0.01543963      -0.07341530      -0.30521110      -0.02296725       0.00346249      -0.01167895
C        1.45457133      -0.07340563      -0.30521573       0.02296289       0.00346077      -0.01167194
C        2.17246299       1.01482551      -0.02339055      -0.35976738       0.10039117       1.02628041
C        1.40136056       1.23809875       2.36401694       0.35328978      -0.09955899      -1.04029323
C        0.06863453       1.23811354       2.36401417      -0.35328769      -0.09957682      -1.04029822
H       -0.29533851       2.00815432      -0.01855177      -0.00387907       0.00626348      -0.00455916
H       -1.76998049       0.94627672       0.10335582       0.01444266      -0.00058358       0.01266335
H       -0.49775859      -1.01927736      -0.37979592       0.00212838      -0.00618809       0.00587874
H        1.96778266      -1.01926015      -0.37980792      -0.00213185      -0.00618691       0.00587527
H        3.23997936       0.94630818       0.10334979      -0.01444343      -0.00058707       0.01266587
H        1.76532271       2.00816656      -0.01854460       0.00387766       0.00626079      -0.00455081
H        1.96050506       0.33525592       2.53806088      -0.00941625      -0.00189148       0.01221032
H        1.96139062       2.15725903       2.32152990      -0.00669505      -0.00188448      -0.00050328
H       -0.49137493       2.15728619       2.32152106       0.00669424      -0.00189044      -0.00050735
H       -0.49053109       0.33528423       2.53806008       0.00942452      -0.00189720       0.01220538
