16
Properties=species:S:1:pos:R:3:forces:R:3 energy:=T -17.834185856637=T gnorm:=T 0.000899460021=T xtb:=T 6.7.1=T (edcfbbe)=T energy=-6380.878290405401 free_energy=-6380.878290405401 pbc="F F F"
C       -0.63953148       0.99162472       0.23431635      -0.03837234      -0.00367229      -0.08296743
C        0.04274222      -0.08904670      -0.27100662      -0.00333587      -0.00333886      -0.01323305
C        1.42727503      -0.08901849      -0.27102592       0.00333311      -0.00334179      -0.01323197
C        2.10952060       0.99166617       0.23430640       0.03837010      -0.00367643      -0.08296050
C        1.42049964       1.26265091       2.11672397      -0.03144472       0.01728256       0.10997041
C        0.04949882       1.26268066       2.11672014       0.03144586       0.01727696       0.10997149
H       -0.30915530       1.99091189       0.02161321      -0.00519372      -0.00271063       0.00744541
H       -1.70228885       0.90107833       0.40412990       0.00103290      -0.01935152      -0.00434069
H       -0.48944206      -1.01370216      -0.44584399       0.01088262       0.00281104      -0.01540075
H        1.95949262      -1.01364787      -0.44590059      -0.01088969       0.00280075      -0.01536881
H        3.17228400       0.90115019       0.40409825      -0.00103315      -0.01935922      -0.00433548
H        1.77910915       1.99094935       0.02163770       0.00519970      -0.00272180       0.00742844
H        1.96345706       0.38276844       2.40342046      -0.00387002       0.00342760       0.01856553
H        1.97656938       2.18076154       2.13670353      -0.00334180       0.00559323      -0.02006209
H       -0.50652792       2.18081888       2.13667118       0.00333097       0.00557397      -0.02004307
H       -0.49350292       0.38283268       2.40343604       0.00388606       0.00340642       0.01856257
