16
Properties=species:S:1:pos:R:3:forces:R:3 energy:=T -17.834185856637=T gnorm:=T 0.000899460021=T xtb:=T 6.7.1=T (edcfbbe)=T energy=-6380.870098242608 free_energy=-6380.870098242608 pbc="F F F"
C       -0.64052450       0.98868128       0.25096520      -0.00005855      -0.00004191       0.00000250
C        0.04617610      -0.09064366      -0.27330751      -0.00001260       0.00000207      -0.00001419
C        1.42383361      -0.09062921      -0.27331414       0.00000091       0.00002271      -0.00000311
C        2.11051757       0.98870616       0.25095877      -0.00001485       0.00004925      -0.00002504
C        1.42429896       1.26478765       2.10475445       0.00001572       0.00002763      -0.00001513
C        0.04570173       1.26479198       2.10475591       0.00001727      -0.00007704      -0.00000947
H       -0.32894925       1.98823407       0.00959166      -0.00000745       0.00003579       0.00000539
H       -1.70305189       0.88534024       0.41815695      -0.00000286       0.00000944      -0.00000147
H       -0.48507110      -1.00966172      -0.47657963       0.00002106       0.00002151       0.00003082
H        1.95509851      -1.00963378      -0.47659579      -0.00001125      -0.00001212       0.00002674
H        3.17304741       0.88538649       0.41813932       0.00004748      -0.00000419       0.00000868
H        1.79892005       1.98825659       0.00959280       0.00003549      -0.00003902       0.00002224
H        1.96012810       0.39205642       2.42810029      -0.00000000      -0.00001539       0.00000190
H        1.97263780       2.18836715       2.13834061      -0.00007027      -0.00001437      -0.00001507
H       -0.50263094       2.18837326       2.13833295       0.00003322       0.00003791      -0.00000954
H       -0.49013216       0.39206564       2.42810817       0.00000668      -0.00000226      -0.00000523
