      -----------------------------------------------------------      
     |                   =====================                   |     
     |                           x T B                           |     
     |                   =====================                   |     
     |                         S. Grimme                         |     
     |          Mulliken Center for Theoretical Chemistry        |     
     |                    University of Bonn                     |     
      -----------------------------------------------------------      

   * xtb version 6.7.1pre (5071a88) compiled by 'Marcel@Raven' on 2024-07-23

   xtb is free software: you can redistribute it and/or modify it under
   the terms of the GNU Lesser General Public License as published by
   the Free Software Foundation, either version 3 of the License, or
   (at your option) any later version.
   
   xtb is distributed in the hope that it will be useful,
   but WITHOUT ANY WARRANTY; without even the implied warranty of
   MERCHANTABILITY or FITNESS FOR A PARTICULAR PURPOSE.  See the
   GNU Lesser General Public License for more details.
   
   Cite this work as:
   * C. Bannwarth, E. Caldeweyher, S. Ehlert, A. Hansen, P. Pracht,
     J. Seibert, S. Spicher, S. Grimme, WIREs Comput. Mol. Sci., 2020, 11,
     e01493. DOI: 10.1002/wcms.1493
   
   for GFN2-xTB:
   * C. Bannwarth, S. Ehlert and S. Grimme., J. Chem. Theory Comput., 2019,
     15, 1652-1671. DOI: 10.1021/acs.jctc.8b01176
   for GFN1-xTB:
   * S. Grimme, C. Bannwarth, P. Shushkov, J. Chem. Theory Comput., 2017,
     13, 1989-2009. DOI: 10.1021/acs.jctc.7b00118
   for GFN0-xTB:
   * P. Pracht, E. Caldeweyher, S. Ehlert, S. Grimme, ChemRxiv, 2019, preprint.
     DOI: 10.26434/chemrxiv.8326202.v1
   for GFN-FF:
   * S. Spicher and S. Grimme, Angew. Chem. Int. Ed., 2020, 59, 15665-15673.
     DOI: 10.1002/anie.202004239
   
   for ALPB and GBSA implicit solvation:
   * S. Ehlert, M. Stahn, S. Spicher, S. Grimme, J. Chem. Theory Comput.,
     2021, 17, 4250-4261. DOI: 10.1021/acs.jctc.1c00471
   
   for ddCOSMO and CPCM-X implicit solvation:
   * M. Stahn, S. Ehlert, S. Grimme, J. Phys. Chem. A,
     2023, XX, XXXX-XXXX. DOI: 10.1021/acs.jpca.3c04382
   
   for DFT-D4:
   * E. Caldeweyher, C. Bannwarth and S. Grimme, J. Chem. Phys., 2017,
     147, 034112. DOI: 10.1063/1.4993215
   * E. Caldeweyher, S. Ehlert, A. Hansen, H. Neugebauer, S. Spicher,
     C. Bannwarth and S. Grimme, J. Chem. Phys., 2019, 150, 154122.
     DOI: 10.1063/1.5090222
   * E. Caldeweyher, J.-M. Mewes, S. Ehlert and S. Grimme, Phys. Chem. Chem. Phys.
     2020, 22, 8499-8512. DOI: 10.1039/D0CP00502A
   
   for sTDA-xTB:
   * S. Grimme and C. Bannwarth, J. Chem. Phys., 2016, 145, 054103.
     DOI: 10.1063/1.4959605
   
   in the mass-spec context:
   * V. Asgeirsson, C. Bauer and S. Grimme, Chem. Sci., 2017, 8, 4879.
     DOI: 10.1039/c7sc00601b
   * J. Koopman and S. Grimme, ACS Omega 2019, 4, 12, 15120-15133.
     DOI: 10.1021/acsomega.9b02011
   
   for metadynamics refer to:
   * S. Grimme, J. Chem. Theory Comput., 2019, 155, 2847-2862
     DOI: 10.1021/acs.jctc.9b00143
   
   for SPH calculations refer to:
   * S. Spicher and S. Grimme, J. Chem. Theory Comput., 2021, 17, 1701-1714
     DOI: 10.1021/acs.jctc.0c01306
   
   for ONIOM refer to:
   * C. Plett, A. Katbashev, S. Ehlert, S. Grimme, M. Bursch,
     Phys. Chem. Chem. Phys., 2023, 25, 17860-17868. DOI: 10.1039/D3CP02178E
   
   for DIPRO refer to:
   * J. Kohn, N. Gildemeister, S. Grimme, D. Fazzi, A. Hansen,
     J. Chem. Phys., 2023, just accepted.
   
   for PTB refer to:
   * S. Grimme, M. Mueller, A. Hansen, J. Chem. Phys., 2023, 158, 124111.
     DOI: 10.1063/5.0137838
   
   with help from (in alphabetical order)
   P. Atkinson, C. Bannwarth, F. Bohle, G. Brandenburg, E. Caldeweyher
   M. Checinski, S. Dohm, S. Ehlert, S. Ehrlich, I. Gerasimov, C. Hölzer
   A. Katbashev, J. Kohn, J. Koopman, C. Lavigne, S. Lehtola, F. März, M. Müller,
   F. Musil, H. Neugebauer, J. Pisarek, C. Plett, P. Pracht, F. Pultar,
   J. Seibert, P. Shushkov, S. Spicher, M. Stahn, M. Steiner, T. Strunk,
   J. Stückrath, T. Rose, and J. Unsleber
   
 * started run on 2026/07/10 at 14:12:26.468     
   ID    Z sym.   atoms
    1    8 O      1, 4, 7, 10, 13, 16, 19, 22
    2    1 H      2, 3, 5, 6, 8, 9, 11, 12, 14, 15, 17, 18, 20, 21, 23, 24

           -------------------------------------------------
          |                Calculation Setup                |
           -------------------------------------------------

          program call               : C:\Users\pc\Documents\Research\xtb_metadynamics\tools\xtb-6.7.1\bin\xtb.exe start.xyz --opt loose --gfn 1 --chrg 0 --uhf 0
          coordinate file            : start.xyz
          omp threads                :                    16


molecular fragmentation (1/2 indicates fragments):
111222222222222222222222
# atoms in fragment 1/2:     3    21
 fragment masses (1/2) :       18.02      126.11
CMA distance (Bohr)    :  10.874
constraining FC (au)   :  0.0500

           -------------------------------------------------
          |                 G F N 1 - x T B                 |
           -------------------------------------------------

        Reference                      10.1021/acs.jctc.7b00118
      * Hamiltonian:
        H0-scaling (s, p, d)           1.850000    2.250000    2.000000
        zeta-weighting                 0.000000
      * Dispersion:
        s8                             2.400000
        a1                             0.630000
        a2                             5.000000
        s9                             0.000000
      * Repulsion:
        kExp                           1.500000
        rExp                           1.000000
      * Coulomb:
        alpha                          2.000000
        third order                    atomic
        anisotropic                    false
      * Halogen bond correction:
        rad-scale                      1.300000
        damping                        0.440000


          ...................................................
          :                      SETUP                      :
          :.................................................:
          :  # basis functions                  64          :
          :  # atomic orbitals                  64          :
          :  # shells                           48          :
          :  # electrons                        64          :
          :  # halogen bonds                     0          :
          :  max. iterations                   250          :
          :  Hamiltonian                  GFN1-xTB          :
          :  restarted?                      false          :
          :  GBSA solvation                  false          :
          :  PC potential                    false          :
          :  electronic temp.          300.0000000     K    :
          :  accuracy                    1.0000000          :
          :  -> integral cutoff          0.2500000E+02      :
          :  -> integral neglect         0.1000000E-07      :
          :  -> SCF convergence          0.1000000E-05 Eh   :
          :  -> wf. convergence          0.2000000E-04 e    :
          :  Broyden damping             0.4000000          :
          :  net charge                          0          :
          :  unpaired electrons                  0          :
          ...................................................

 iter      E             dE          RMSdq      gap      omega  full diag
   1    -46.4415860 -0.464416E+02  0.464E+00    9.66       0.0  T
   2    -46.4489386 -0.735267E-02  0.268E+00    9.12       1.0  T
   3    -46.4495405 -0.601867E-03  0.210E-01    8.62       1.0  T
   4    -46.4498337 -0.293182E-03  0.232E-03    8.73       8.8  T
   5    -46.4498337 -0.412634E-07  0.197E-04    8.73     103.4  T
   6    -46.4498337 -0.277481E-09  0.274E-05    8.73     744.1  T

   *** convergence criteria satisfied after 6 iterations ***

         #    Occupation            Energy/Eh            Energy/eV
      -------------------------------------------------------------
         1        2.0000           -0.7711635             -20.9844
       ...           ...                  ...                  ...
        26        2.0000           -0.5095128             -13.8646
        27        2.0000           -0.5086856             -13.8420
        28        2.0000           -0.5069799             -13.7956
        29        2.0000           -0.5066150             -13.7857
        30        2.0000           -0.4996728             -13.5968
        31        2.0000           -0.4994183             -13.5899
        32        2.0000           -0.4922300             -13.3943 (HOMO)
        33                         -0.1713498              -4.6627 (LUMO)
        34                         -0.1675409              -4.5590
        35                         -0.1660105              -4.5174
        36                         -0.1645031              -4.4764
        37                         -0.1631393              -4.4392
       ...                                ...                  ...
        64                          0.4748083              12.9202
      -------------------------------------------------------------
                  HL-Gap            0.3208802 Eh            8.7316 eV
             Fermi-level           -0.3317899 Eh           -9.0285 eV

 SCC (total)                   0 d,  0 h,  0 min,  0.029 sec
 SCC setup                      ...        0 min,  0.000 sec (  0.000%)
 Dispersion                     ...        0 min,  0.000 sec (  0.000%)
 classical contributions        ...        0 min,  0.001 sec (  3.448%)
 integral evaluation            ...        0 min,  0.001 sec (  3.448%)
 iterations                     ...        0 min,  0.009 sec ( 31.035%)
 molecular gradient             ...        0 min,  0.016 sec ( 55.172%)
 printout                       ...        0 min,  0.000 sec (  0.000%)

         :::::::::::::::::::::::::::::::::::::::::::::::::::::
         ::                     SUMMARY                     ::
         :::::::::::::::::::::::::::::::::::::::::::::::::::::
         :: total energy             -46.149433096530 Eh    ::
         :: gradient norm              0.018219080864 Eh/a0 ::
         :: HOMO-LUMO gap              8.731593661624 eV    ::
         ::.................................................::
         :: SCC energy               -46.449833719668 Eh    ::
         :: -> electrostatic           0.400491462029 Eh    ::
         :: repulsion energy           0.302024739266 Eh    ::
         :: dispersion energy         -0.001624116128 Eh    ::
         :: halogen bond corr.         0.000000000000 Eh    ::
         :: add. restraining           0.000000000000 Eh    ::
         :: total charge              -0.000000000000 e     ::
         :::::::::::::::::::::::::::::::::::::::::::::::::::::

      ----------------------------------------------------------- 
     |                   =====================                   |
     |                        A N C O P T                        |
     |                   =====================                   |
     |               Approximate Normal Coordinate               |
     |                Rational Function Optimizer                |
      ----------------------------------------------------------- 
      ----------------------------------------------------------- 
     |                   =====================                   |
     |                        A N C O P T                        |
     |                   =====================                   |
     |               Approximate Normal Coordinate               |
     |                Rational Function Optimizer                |
      ----------------------------------------------------------- 

          ...................................................
          :                      SETUP                      :
          :.................................................:
          :   optimization level             loose          :
          :   max. optcycles                   200          :
          :   ANC micro-cycles                  20          :
          :   degrees of freedom                66          :
          :.................................................:
          :   RF solver                   davidson          :
          :   write xtbopt.log                true          :
          :   linear?                        false          :
          :   energy convergence         0.5000000E-04 Eh   :
          :   grad. convergence          0.4000000E-02 Eh/α :
          :   maxmium RF displ.          1.0000000          :
          :   Hlow (freq-cutoff)         0.1000000E-01      :
          :   Hmax (freq-cutoff)         5.0000000          :
          :   S6 in model hess.         20.0000000          :
          ...................................................

generating ANC from exact Hessian ...
Using Lindh-Hessian (1995)
 Shifting diagonal of input Hessian by   1.000277210190815E-002
 Lowest  eigenvalues of input Hessian
    0.010000    0.010000    0.010001    0.000000    0.000000    0.010002
    0.010002    0.010002    0.000000    0.000000    0.000000    0.000000
    0.010006    0.010007    0.010007    0.010008    0.010010    0.010010
 Highest eigenvalues
    1.416067    1.416067    1.416068    1.416068    1.416068    1.416070
 

........................................................................
.............................. CYCLE    1 ..............................
........................................................................

 iter      E             dE          RMSdq      gap      omega  full diag
   1    -46.4498337 -0.464498E+02  0.360E-06    8.73       0.0  T
   2    -46.4498337  0.355271E-13  0.215E-06    8.73    9485.5  T
   3    -46.4498337 -0.639488E-13  0.214E-07    8.73   95577.2  T
     SCC iter.                  ...        0 min,  0.018 sec
     gradient                   ...        0 min,  0.002 sec
 * total energy  :   -46.1494331 Eh     change       -0.4092726E-11 Eh
   gradient norm :     0.0182190 Eh/α   predicted     0.0000000E+00 (-100.00%)
   displ. norm   :     0.1486820 α      lambda       -0.1083158E-02
   maximum displ.:     0.0636131 α      in ANC's #26, #32, #21, ...

........................................................................
.............................. CYCLE    2 ..............................
........................................................................

 iter      E             dE          RMSdq      gap      omega  full diag
   1    -46.4481079 -0.464481E+02  0.128E-02    8.75       0.0  T
   2    -46.4481084 -0.537688E-06  0.632E-03    8.74       3.2  T
   3    -46.4481085 -0.614003E-07  0.145E-03    8.74      14.0  T
   4    -46.4481085 -0.354333E-08  0.462E-05    8.74     441.8  T
   5    -46.4481085 -0.133582E-10  0.192E-06    8.74   10635.8  T
     SCC iter.                  ...        0 min,  0.024 sec
     gradient                   ...        0 min,  0.003 sec
 * total energy  :   -46.1503112 Eh     change       -0.8780717E-03 Eh
   gradient norm :     0.0138827 Eh/α   predicted    -0.5535534E-03 ( -36.96%)
   displ. norm   :     0.2780622 α      lambda       -0.1267288E-02
   maximum displ.:     0.1339259 α      in ANC's #32, #27, #29, ...

........................................................................
.............................. CYCLE    3 ..............................
........................................................................

 iter      E             dE          RMSdq      gap      omega  full diag
   1    -46.4454282 -0.464454E+02  0.262E-02    8.77       0.0  T
   2    -46.4454304 -0.222421E-05  0.130E-02    8.77       1.6  T
   3    -46.4454306 -0.253624E-06  0.298E-03    8.76       6.9  T
   4    -46.4454307 -0.149125E-07  0.724E-05    8.76     282.1  T
   5    -46.4454307 -0.328555E-10  0.130E-05    8.76    1574.6  T
     SCC iter.                  ...        0 min,  0.008 sec
     gradient                   ...        0 min,  0.020 sec
 * total energy  :   -46.1510280 Eh     change       -0.7168380E-03 Eh
   gradient norm :     0.0144659 Eh/α   predicted    -0.6826577E-03 (  -4.77%)
   displ. norm   :     0.1029025 α      lambda       -0.2546049E-03
   maximum displ.:     0.0451969 α      in ANC's #32, #16, #39, ...

........................................................................
.............................. CYCLE    4 ..............................
........................................................................

 iter      E             dE          RMSdq      gap      omega  full diag
   1    -46.4490793 -0.464491E+02  0.178E-02    8.77       0.0  T
   2    -46.4490802 -0.827484E-06  0.910E-03    8.77       2.2  T
   3    -46.4490802 -0.908580E-07  0.196E-03    8.77      10.4  T
   4    -46.4490803 -0.802547E-08  0.134E-05    8.77    1524.1  T
   5    -46.4490803 -0.945022E-12  0.489E-06    8.77    4174.8  T
     SCC iter.                  ...        0 min,  0.009 sec
     gradient                   ...        0 min,  0.001 sec
 * total energy  :   -46.1512097 Eh     change       -0.1816548E-03 Eh
   gradient norm :     0.0067596 Eh/α   predicted    -0.1286516E-03 ( -29.18%)
   displ. norm   :     0.3119103 α      lambda       -0.4491798E-03
   maximum displ.:     0.1192211 α      in ANC's #32, #26, #21, ...

........................................................................
.............................. CYCLE    5 ..............................
........................................................................

 iter      E             dE          RMSdq      gap      omega  full diag
   1    -46.4484531 -0.464485E+02  0.124E-02    8.79       0.0  T
   2    -46.4484535 -0.437286E-06  0.635E-03    8.79       3.2  T
   3    -46.4484536 -0.536005E-07  0.139E-03    8.78      14.7  T
   4    -46.4484536 -0.372138E-08  0.813E-05    8.78     251.1  T
   5    -46.4484536 -0.392788E-10  0.169E-06    8.78   12109.3  T
     SCC iter.                  ...        0 min,  0.019 sec
     gradient                   ...        0 min,  0.001 sec
 * total energy  :   -46.1515530 Eh     change       -0.3433092E-03 Eh
   gradient norm :     0.0131197 Eh/α   predicted    -0.2464427E-03 ( -28.22%)
   displ. norm   :     0.4926227 α      lambda       -0.7211993E-03
   maximum displ.:     0.1924369 α      in ANC's #32, #21, #15, ...

........................................................................
.............................. CYCLE    6 ..............................
........................................................................

 iter      E             dE          RMSdq      gap      omega  full diag
   1    -46.4411800 -0.464412E+02  0.313E-02    8.78       0.0  T
   2    -46.4411818 -0.176116E-05  0.168E-02    8.78       1.2  T
   3    -46.4411820 -0.185890E-06  0.310E-03    8.78       6.6  T
   4    -46.4411820 -0.276340E-07  0.126E-04    8.78     162.4  T
   5    -46.4411820 -0.975788E-10  0.169E-05    8.78    1207.6  T
     SCC iter.                  ...        0 min,  0.010 sec
     gradient                   ...        0 min,  0.002 sec
 * total energy  :   -46.1518737 Eh     change       -0.3206923E-03 Eh
   gradient norm :     0.0279607 Eh/α   predicted    -0.4481119E-03 (  39.73%)
   displ. norm   :     0.3221070 α      lambda       -0.1443267E-02
   maximum displ.:     0.1132734 α      in ANC's #14, #26, #32, ...

........................................................................
.............................. CYCLE    7 ..............................
........................................................................

 iter      E             dE          RMSdq      gap      omega  full diag
   1    -46.4507559 -0.464508E+02  0.497E-02    8.79       0.0  T
   2    -46.4507615 -0.561746E-05  0.260E-02    8.79       1.0  T
   3    -46.4507621 -0.623854E-06  0.529E-03    8.79       3.9  T
   4    -46.4507622 -0.660371E-07  0.109E-04    8.79     186.6  T
   5    -46.4507622 -0.713527E-10  0.344E-05    8.79     594.2  T
     SCC iter.                  ...        0 min,  0.021 sec
     gradient                   ...        0 min,  0.003 sec
 * total energy  :   -46.1523613 Eh     change       -0.4876065E-03 Eh
   gradient norm :     0.0226629 Eh/α   predicted    -0.7965080E-03 (  63.35%)
   displ. norm   :     0.3101991 α      lambda       -0.1625396E-02
   maximum displ.:     0.1119168 α      in ANC's #32, #15, #16, ...

........................................................................
.............................. CYCLE    8 ..............................
........................................................................

 iter      E             dE          RMSdq      gap      omega  full diag
   1    -46.4719042 -0.464719E+02  0.881E-02    8.87       0.0  T
   2    -46.4719200 -0.158375E-04  0.468E-02    8.85       1.0  T
   3    -46.4719219 -0.190548E-05  0.907E-03    8.84       2.3  T
   4    -46.4719222 -0.209322E-06  0.215E-04    8.85      94.9  T
   5    -46.4719222 -0.263533E-09  0.679E-05    8.85     300.7  T
   6    -46.4719222 -0.271001E-10  0.645E-06    8.85    3162.3  T
     SCC iter.                  ...        0 min,  0.022 sec
     gradient                   ...        0 min,  0.001 sec
 * total energy  :   -46.1513577 Eh     change        0.1003619E-02 Eh
   gradient norm :     0.0508629 Eh/α   predicted    -0.8909007E-03 (-188.77%)
   displ. norm   :     0.2888383 α      lambda       -0.3217330E-02
   maximum displ.:     0.1238712 α      in ANC's #32, #27, #26, ...

........................................................................
.............................. CYCLE    9 ..............................
........................................................................

 iter      E             dE          RMSdq      gap      omega  full diag
   1    -46.4494900 -0.464495E+02  0.903E-02    8.78       0.0  T
   2    -46.4495079 -0.179168E-04  0.474E-02    8.78       1.0  T
   3    -46.4495097 -0.186747E-05  0.959E-03    8.78       2.1  T
   4    -46.4495100 -0.224437E-06  0.115E-04    8.78     177.8  T
   5    -46.4495100 -0.905231E-10  0.390E-05    8.78     523.8  T
     SCC iter.                  ...        0 min,  0.009 sec
     gradient                   ...        0 min,  0.001 sec
 * total energy  :   -46.1521897 Eh     change       -0.8320691E-03 Eh
   gradient norm :     0.0405678 Eh/α   predicted    -0.1742873E-02 ( 109.46%)
   displ. norm   :     0.4182198 α      lambda       -0.4334441E-02
   maximum displ.:     0.1643085 α      in ANC's #19, #29, #15, ...

........................................................................
.............................. CYCLE   10 ..............................
........................................................................

 iter      E             dE          RMSdq      gap      omega  full diag
   1    -46.4171569 -0.464172E+02  0.163E-01    8.65       0.0  T
   2    -46.4172211 -0.642084E-04  0.843E-02    8.68       1.0  T
   3    -46.4172272 -0.608632E-05  0.179E-02    8.70       1.1  T
   4    -46.4172279 -0.716424E-06  0.608E-04    8.69      33.6  T
   5    -46.4172279 -0.271147E-08  0.129E-04    8.69     157.8  T
   6    -46.4172279 -0.102034E-09  0.276E-05    8.69     739.0  T
     SCC iter.                  ...        0 min,  0.024 sec
     gradient                   ...        0 min,  0.002 sec
 * total energy  :   -46.1474269 Eh     change        0.4762792E-02 Eh
   gradient norm :     0.0929510 Eh/α   predicted    -0.2546287E-02 (-153.46%)
   displ. norm   :     0.2994821 α      lambda       -0.1186687E-01
   maximum displ.:     0.1205887 α      in ANC's #19, #29, #26, ...

........................................................................
.............................. CYCLE   11 ..............................
........................................................................

 iter      E             dE          RMSdq      gap      omega  full diag
   1    -46.4561970 -0.464562E+02  0.139E-01    8.87       0.0  T
   2    -46.4562374 -0.403424E-04  0.737E-02    8.86       1.0  T
   3    -46.4562419 -0.446748E-05  0.144E-02    8.85       1.4  T
   4    -46.4562424 -0.537435E-06  0.208E-04    8.85      98.1  T
   5    -46.4562424 -0.223324E-09  0.849E-05    8.85     240.4  T
   6    -46.4562424 -0.441815E-10  0.345E-06    8.85    5920.7  T
     SCC iter.                  ...        0 min,  0.005 sec
     gradient                   ...        0 min,  0.014 sec
 * total energy  :   -46.1524836 Eh     change       -0.5056645E-02 Eh
   gradient norm :     0.0331234 Eh/α   predicted    -0.6465595E-02 (  27.86%)
   displ. norm   :     0.5237460 α      lambda       -0.3914711E-02
   maximum displ.:     0.3149807 α      in ANC's #32, #22, #15, ...

........................................................................
.............................. CYCLE   12 ..............................
........................................................................

 iter      E             dE          RMSdq      gap      omega  full diag
   1    -46.4502579 -0.464503E+02  0.135E-01    8.73       0.0  T
   2    -46.4503027 -0.448437E-04  0.697E-02    8.70       1.0  T
   3    -46.4503071 -0.441667E-05  0.148E-02    8.68       1.4  T
   4    -46.4503076 -0.482582E-06  0.698E-04    8.68      29.3  T
   5    -46.4503076 -0.324194E-08  0.129E-04    8.68     158.0  T
   6    -46.4503076 -0.950990E-10  0.272E-05    8.68     750.4  T
     SCC iter.                  ...        0 min,  0.010 sec
     gradient                   ...        0 min,  0.002 sec
 * total energy  :   -46.1490142 Eh     change        0.3469385E-02 Eh
   gradient norm :     0.0873326 Eh/α   predicted    -0.2494278E-02 (-171.89%)
   displ. norm   :     0.3201838 α      lambda       -0.9493192E-02
   maximum displ.:     0.1812547 α      in ANC's #23, #32, #28, ...

........................................................................
.............................. CYCLE   13 ..............................
........................................................................

 iter      E             dE          RMSdq      gap      omega  full diag
   1    -46.4572371 -0.464572E+02  0.139E-01    8.80       0.0  T
   2    -46.4572777 -0.406976E-04  0.737E-02    8.81       1.0  T
   3    -46.4572823 -0.459543E-05  0.145E-02    8.82       1.4  T
   4    -46.4572829 -0.533008E-06  0.260E-04    8.81      78.4  T
   5    -46.4572829 -0.523059E-09  0.738E-05    8.81     276.5  T
   6    -46.4572829 -0.378719E-10  0.129E-05    8.81    1582.1  T
     SCC iter.                  ...        0 min,  0.020 sec
     gradient                   ...        0 min,  0.003 sec
 * total energy  :   -46.1517140 Eh     change       -0.2699797E-02 Eh
   gradient norm :     0.0560715 Eh/α   predicted    -0.5233208E-02 (  93.84%)
   displ. norm   :     0.5196633 α      lambda       -0.8354630E-02
   maximum displ.:     0.2193802 α      in ANC's #28, #35, #42, ...

........................................................................
.............................. CYCLE   14 ..............................
........................................................................

 iter      E             dE          RMSdq      gap      omega  full diag
   1    -46.4423733 -0.464424E+02  0.149E-01    8.74       0.0  T
   2    -46.4424297 -0.564735E-04  0.767E-02    8.78       1.0  T
   3    -46.4424359 -0.617824E-05  0.164E-02    8.81       1.2  T
   4    -46.4424365 -0.576521E-06  0.887E-04    8.80      23.0  T
   5    -46.4424365 -0.462090E-08  0.153E-04    8.80     133.8  T
   6    -46.4424365 -0.135955E-09  0.221E-05    8.80     923.3  T
     SCC iter.                  ...        0 min,  0.006 sec
     gradient                   ...        0 min,  0.002 sec
 * total energy  :   -46.1472958 Eh     change        0.4418175E-02 Eh
   gradient norm :     0.1073362 Eh/α   predicted    -0.5305401E-02 (-220.08%)
   displ. norm   :     0.3159472 α      lambda       -0.1112751E-01
   maximum displ.:     0.1866995 α      in ANC's #15, #22, #42, ...

........................................................................
.............................. CYCLE   15 ..............................
........................................................................

 iter      E             dE          RMSdq      gap      omega  full diag
   1    -46.4557597 -0.464558E+02  0.998E-02    8.86       0.0  T
   2    -46.4557837 -0.239262E-04  0.519E-02    8.83       1.0  T
   3    -46.4557864 -0.276231E-05  0.107E-02    8.81       1.9  T
   4    -46.4557867 -0.262429E-06  0.481E-04    8.82      42.4  T
   5    -46.4557867 -0.131553E-08  0.870E-05    8.82     234.5  T
   6    -46.4557867 -0.448068E-10  0.326E-06    8.82    6259.2  T
     SCC iter.                  ...        0 min,  0.011 sec
     gradient                   ...        0 min,  0.002 sec
 * total energy  :   -46.1528391 Eh     change       -0.5543273E-02 Eh
   gradient norm :     0.0238870 Eh/α   predicted    -0.6119151E-02 (  10.39%)
   displ. norm   :     0.4972607 α      lambda       -0.2390630E-02
   maximum displ.:     0.2206155 α      in ANC's #28, #40, #32, ...

........................................................................
.............................. CYCLE   16 ..............................
........................................................................

 iter      E             dE          RMSdq      gap      omega  full diag
   1    -46.4462455 -0.464462E+02  0.779E-02    8.83       0.0  T
   2    -46.4462599 -0.143926E-04  0.406E-02    8.83       1.0  T
   3    -46.4462614 -0.156319E-05  0.843E-03    8.83       2.4  T
   4    -46.4462616 -0.161965E-06  0.477E-04    8.83      42.7  T
   5    -46.4462616 -0.130994E-08  0.562E-05    8.83     363.4  T
   6    -46.4462616 -0.191491E-10  0.554E-06    8.83    3683.6  T
     SCC iter.                  ...        0 min,  0.025 sec
     gradient                   ...        0 min,  0.003 sec
 * total energy  :   -46.1513280 Eh     change        0.1511088E-02 Eh
   gradient norm :     0.0676873 Eh/α   predicted    -0.1490880E-02 (-198.66%)
   displ. norm   :     0.2452955 α      lambda       -0.4906235E-02
   maximum displ.:     0.1003202 α      in ANC's #27, #40, #28, ...

........................................................................
.............................. CYCLE   17 ..............................
........................................................................

 iter      E             dE          RMSdq      gap      omega  full diag
   1    -46.4540088 -0.464540E+02  0.590E-02    8.81       0.0  T
   2    -46.4540168 -0.802527E-05  0.309E-02    8.81       1.0  T
   3    -46.4540178 -0.971536E-06  0.627E-03    8.82       3.3  T
   4    -46.4540179 -0.915162E-07  0.357E-04    8.82      57.2  T
   5    -46.4540179 -0.749623E-09  0.416E-05    8.82     490.8  T
   6    -46.4540179 -0.103597E-10  0.323E-06    8.82    6310.9  T
     SCC iter.                  ...        0 min,  0.021 sec
     gradient                   ...        0 min,  0.002 sec
 * total energy  :   -46.1534882 Eh     change       -0.2160249E-02 Eh
   gradient norm :     0.0148463 Eh/α   predicted    -0.2600721E-02 (  20.39%)
   displ. norm   :     0.2080903 α      lambda       -0.6155925E-03
   maximum displ.:     0.0853250 α      in ANC's #17, #16, #23, ...

........................................................................
.............................. CYCLE   18 ..............................
........................................................................

 iter      E             dE          RMSdq      gap      omega  full diag
   1    -46.4550185 -0.464550E+02  0.453E-02    8.82       0.0  T
   2    -46.4550230 -0.450025E-05  0.238E-02    8.82       1.0  T
   3    -46.4550235 -0.506430E-06  0.478E-03    8.81       4.3  T
   4    -46.4550236 -0.554018E-07  0.109E-04    8.82     186.4  T
   5    -46.4550236 -0.725890E-10  0.314E-05    8.82     650.6  T
     SCC iter.                  ...        0 min,  0.005 sec
     gradient                   ...        0 min,  0.019 sec
 * total energy  :   -46.1533196 Eh     change        0.1686573E-03 Eh
   gradient norm :     0.0276971 Eh/α   predicted    -0.3211294E-03 (-290.40%)
   displ. norm   :     0.2341115 α      lambda       -0.1035173E-02
   maximum displ.:     0.1152535 α      in ANC's #30, #24, #14, ...

........................................................................
.............................. CYCLE   19 ..............................
........................................................................

 iter      E             dE          RMSdq      gap      omega  full diag
   1    -46.4516550 -0.464517E+02  0.449E-02    8.81       0.0  T
   2    -46.4516596 -0.456034E-05  0.235E-02    8.82       1.0  T
   3    -46.4516601 -0.481243E-06  0.480E-03    8.82       4.3  T
   4    -46.4516601 -0.550143E-07  0.872E-05    8.82     234.0  T
   5    -46.4516601 -0.427107E-10  0.293E-05    8.82     696.2  T
     SCC iter.                  ...        0 min,  0.007 sec
     gradient                   ...        0 min,  0.001 sec
 * total energy  :   -46.1537534 Eh     change       -0.4337798E-03 Eh
   gradient norm :     0.0167151 Eh/α   predicted    -0.5459574E-03 (  25.86%)
   displ. norm   :     0.4038394 α      lambda       -0.1135797E-02
   maximum displ.:     0.1516125 α      in ANC's #21, #28, #14, ...

........................................................................
.............................. CYCLE   20 ..............................
........................................................................

 iter      E             dE          RMSdq      gap      omega  full diag
   1    -46.4452198 -0.464452E+02  0.597E-02    8.77       0.0  T
   2    -46.4452275 -0.777844E-05  0.314E-02    8.78       1.0  T
   3    -46.4452284 -0.839089E-06  0.630E-03    8.79       3.2  T
   4    -46.4452285 -0.977698E-07  0.219E-04    8.79      93.2  T
   5    -46.4452285 -0.290505E-09  0.466E-05    8.79     438.0  T
   6    -46.4452285 -0.127471E-10  0.610E-06    8.79    3348.7  T
     SCC iter.                  ...        0 min,  0.021 sec
     gradient                   ...        0 min,  0.002 sec
 * total energy  :   -46.1532721 Eh     change        0.4812399E-03 Eh
   gradient norm :     0.0421755 Eh/α   predicted    -0.6605187E-03 (-237.25%)
   displ. norm   :     0.1716581 α      lambda       -0.1963533E-02
   maximum displ.:     0.0934306 α      in ANC's #31, #35, #17, ...
 * RMSD in coord.:     0.6160985 α      energy gain  -0.3839030E-02 Eh

generating ANC from exact Hessian ...
Using Lindh-Hessian (1995)
 Shifting diagonal of input Hessian by   1.000484480931304E-002
 Lowest  eigenvalues of input Hessian
    0.010000    0.010001    0.010002    0.010003    0.010003    0.010003
    0.000000    0.000000    0.000000    0.000000    0.000000    0.000000
    0.010007    0.010007    0.010008    0.010009    0.010010    0.010014
 Highest eigenvalues
    1.429454    1.436177    1.439607    1.440936    1.454020    1.457420
 

........................................................................
.............................. CYCLE   21 ..............................
........................................................................

 iter      E             dE          RMSdq      gap      omega  full diag
   1    -46.4539779 -0.464540E+02  0.477E-02    8.81       0.0  T
   2    -46.4539829 -0.500971E-05  0.251E-02    8.81       1.0  T
   3    -46.4539835 -0.555528E-06  0.504E-03    8.80       4.1  T
   4    -46.4539835 -0.618476E-07  0.146E-04    8.80     139.6  T
   5    -46.4539835 -0.122526E-09  0.369E-05    8.80     553.1  T
     SCC iter.                  ...        0 min,  0.005 sec
     gradient                   ...        0 min,  0.016 sec
 * total energy  :   -46.1541758 Eh     change       -0.9036721E-03 Eh
   gradient norm :     0.0142079 Eh/α   predicted     0.0000000E+00 (-100.00%)
   displ. norm   :     0.1525682 α      lambda       -0.4126874E-03
   maximum displ.:     0.0726260 α      in ANC's #25, #31, #22, ...

........................................................................
.............................. CYCLE   22 ..............................
........................................................................

 iter      E             dE          RMSdq      gap      omega  full diag
   1    -46.4533107 -0.464533E+02  0.826E-03    8.82       0.0  T
   2    -46.4533109 -0.202235E-06  0.420E-03    8.82       4.9  T
   3    -46.4533109 -0.281349E-07  0.908E-04    8.82      22.5  T
   4    -46.4533109 -0.149382E-08  0.815E-05    8.82     250.5  T
   5    -46.4533109 -0.387956E-10  0.100E-06    8.82   20379.0  T
     SCC iter.                  ...        0 min,  0.008 sec
     gradient                   ...        0 min,  0.003 sec
 * total energy  :   -46.1545161 Eh     change       -0.3402804E-03 Eh
   gradient norm :     0.0060587 Eh/α   predicted    -0.2197003E-03 ( -35.44%)
   displ. norm   :     0.3137740 α      lambda       -0.5067510E-03
   maximum displ.:     0.1441919 α      in ANC's #25, #31, #13, ...

........................................................................
.............................. CYCLE   23 ..............................
........................................................................

 iter      E             dE          RMSdq      gap      omega  full diag
   1    -46.4469307 -0.464469E+02  0.205E-02    8.82       0.0  T
   2    -46.4469314 -0.732960E-06  0.111E-02    8.82       1.8  T
   3    -46.4469315 -0.853283E-07  0.198E-03    8.82      10.3  T
   4    -46.4469315 -0.115819E-07  0.120E-04    8.82     170.5  T
   5    -46.4469315 -0.891589E-10  0.464E-06    8.82    4402.3  T
     SCC iter.                  ...        0 min,  0.019 sec
     gradient                   ...        0 min,  0.003 sec
 * total energy  :   -46.1547759 Eh     change       -0.2597998E-03 Eh
   gradient norm :     0.0189431 Eh/α   predicted    -0.2783319E-03 (   7.13%)
   displ. norm   :     0.1590144 α      lambda       -0.3914335E-03
   maximum displ.:     0.0648321 α      in ANC's #19, #13, #31, ...

........................................................................
.............................. CYCLE   24 ..............................
........................................................................

 iter      E             dE          RMSdq      gap      omega  full diag
   1    -46.4501536 -0.464502E+02  0.232E-02    8.86       0.0  T
   2    -46.4501548 -0.125561E-05  0.121E-02    8.86       1.7  T
   3    -46.4501549 -0.137601E-06  0.249E-03    8.86       8.2  T
   4    -46.4501550 -0.143514E-07  0.304E-05    8.86     670.8  T
   5    -46.4501550 -0.536460E-11  0.949E-06    8.86    2149.8  T
     SCC iter.                  ...        0 min,  0.008 sec
     gradient                   ...        0 min,  0.017 sec
 * total energy  :   -46.1550097 Eh     change       -0.2337872E-03 Eh
   gradient norm :     0.0137473 Eh/α   predicted    -0.2006667E-03 ( -14.17%)
   displ. norm   :     0.3119495 α      lambda       -0.5502523E-03
   maximum displ.:     0.1280882 α      in ANC's #19, #29, #25, ...

........................................................................
.............................. CYCLE   25 ..............................
........................................................................

 iter      E             dE          RMSdq      gap      omega  full diag
   1    -46.4545677 -0.464546E+02  0.242E-02    8.86       0.0  T
   2    -46.4545692 -0.150071E-05  0.125E-02    8.86       1.6  T
   3    -46.4545694 -0.169977E-06  0.265E-03    8.86       7.7  T
   4    -46.4545694 -0.148284E-07  0.508E-05    8.86     402.0  T
   5    -46.4545694 -0.156390E-10  0.117E-05    8.86    1741.2  T
     SCC iter.                  ...        0 min,  0.012 sec
     gradient                   ...        0 min,  0.002 sec
 * total energy  :   -46.1553858 Eh     change       -0.3761159E-03 Eh
   gradient norm :     0.0086215 Eh/α   predicted    -0.3018995E-03 ( -19.73%)
   displ. norm   :     0.6228948 α      lambda       -0.7493800E-03
   maximum displ.:     0.2912680 α      in ANC's #25, #31, #29, ...

........................................................................
.............................. CYCLE   26 ..............................
........................................................................

 iter      E             dE          RMSdq      gap      omega  full diag
   1    -46.4436310 -0.464436E+02  0.345E-02    8.85       0.0  T
   2    -46.4436328 -0.181369E-05  0.188E-02    8.85       1.1  T
   3    -46.4436330 -0.182509E-06  0.322E-03    8.85       6.3  T
   4    -46.4436330 -0.337986E-07  0.975E-05    8.85     209.4  T
   5    -46.4436330 -0.555431E-10  0.225E-05    8.85     908.8  T
     SCC iter.                  ...        0 min,  0.006 sec
     gradient                   ...        0 min,  0.005 sec
 * total energy  :   -46.1554792 Eh     change       -0.9340487E-04 Eh
   gradient norm :     0.0311691 Eh/α   predicted    -0.5200787E-03 ( 456.80%)
   displ. norm   :     0.1743498 α      lambda       -0.1353743E-02
   maximum displ.:     0.0613939 α      in ANC's #23, #21, #31, ...

........................................................................
.............................. CYCLE   27 ..............................
........................................................................

 iter      E             dE          RMSdq      gap      omega  full diag
   1    -46.4582225 -0.464582E+02  0.484E-02    8.90       0.0  T
   2    -46.4582273 -0.484193E-05  0.256E-02    8.90       1.0  T
   3    -46.4582279 -0.542540E-06  0.501E-03    8.89       4.1  T
   4    -46.4582279 -0.637648E-07  0.105E-04    8.90     194.8  T
   5    -46.4582279 -0.622791E-10  0.338E-05    8.90     603.5  T
     SCC iter.                  ...        0 min,  0.005 sec
     gradient                   ...        0 min,  0.015 sec
 * total energy  :   -46.1559452 Eh     change       -0.4660515E-03 Eh
   gradient norm :     0.0180083 Eh/α   predicted    -0.6974482E-03 (  49.65%)
   displ. norm   :     0.3083158 α      lambda       -0.1079233E-02
   maximum displ.:     0.1646746 α      in ANC's #19, #22, #31, ...

........................................................................
.............................. CYCLE   28 ..............................
........................................................................

 iter      E             dE          RMSdq      gap      omega  full diag
   1    -46.4573655 -0.464574E+02  0.652E-02    8.85       0.0  T
   2    -46.4573745 -0.905454E-05  0.344E-02    8.86       1.0  T
   3    -46.4573755 -0.101601E-05  0.682E-03    8.86       3.0  T
   4    -46.4573757 -0.116194E-06  0.147E-04    8.86     138.8  T
   5    -46.4573757 -0.140325E-09  0.416E-05    8.86     490.8  T
     SCC iter.                  ...        0 min,  0.006 sec
     gradient                   ...        0 min,  0.007 sec
 * total energy  :   -46.1554947 Eh     change        0.4505662E-03 Eh
   gradient norm :     0.0377880 Eh/α   predicted    -0.5909120E-03 (-231.15%)
   displ. norm   :     0.2437116 α      lambda       -0.1661299E-02
   maximum displ.:     0.1595937 α      in ANC's #31, #25, #23, ...

........................................................................
.............................. CYCLE   29 ..............................
........................................................................

 iter      E             dE          RMSdq      gap      omega  full diag
   1    -46.4558730 -0.464559E+02  0.502E-02    8.87       0.0  T
   2    -46.4558783 -0.537784E-05  0.265E-02    8.86       1.0  T
   3    -46.4558789 -0.585834E-06  0.528E-03    8.86       3.9  T
   4    -46.4558790 -0.697403E-07  0.678E-05    8.86     301.0  T
   5    -46.4558790 -0.255014E-10  0.261E-05    8.86     783.3  T
     SCC iter.                  ...        0 min,  0.020 sec
     gradient                   ...        0 min,  0.003 sec
 * total energy  :   -46.1564024 Eh     change       -0.9077598E-03 Eh
   gradient norm :     0.0134952 Eh/α   predicted    -0.8799893E-03 (  -3.06%)
   displ. norm   :     0.4618482 α      lambda       -0.1020365E-02
   maximum displ.:     0.2224794 α      in ANC's #25, #23, #31, ...

........................................................................
.............................. CYCLE   30 ..............................
........................................................................

 iter      E             dE          RMSdq      gap      omega  full diag
   1    -46.4474554 -0.464475E+02  0.780E-02    8.91       0.0  T
   2    -46.4474699 -0.144973E-04  0.405E-02    8.90       1.0  T
   3    -46.4474714 -0.146010E-05  0.849E-03    8.89       2.4  T
   4    -46.4474716 -0.166832E-06  0.177E-04    8.89     115.1  T
   5    -46.4474716 -0.204473E-09  0.505E-05    8.89     404.0  T
     SCC iter.                  ...        0 min,  0.009 sec
     gradient                   ...        0 min,  0.002 sec
 * total energy  :   -46.1556308 Eh     change        0.7716741E-03 Eh
   gradient norm :     0.0458293 Eh/α   predicted    -0.6190106E-03 (-180.22%)
   displ. norm   :     0.2052873 α      lambda       -0.2851877E-02
   maximum displ.:     0.0803318 α      in ANC's #12, #19, #31, ...

........................................................................
.............................. CYCLE   31 ..............................
........................................................................

 iter      E             dE          RMSdq      gap      omega  full diag
   1    -46.4546295 -0.464546E+02  0.790E-02    8.86       0.0  T
   2    -46.4546443 -0.148253E-04  0.412E-02    8.87       1.0  T
   3    -46.4546459 -0.154870E-05  0.856E-03    8.87       2.4  T
   4    -46.4546461 -0.171810E-06  0.140E-04    8.87     146.1  T
   5    -46.4546461 -0.137518E-09  0.412E-05    8.87     496.0  T
     SCC iter.                  ...        0 min,  0.023 sec
     gradient                   ...        0 min,  0.002 sec
 * total energy  :   -46.1566035 Eh     change       -0.9727352E-03 Eh
   gradient norm :     0.0267900 Eh/α   predicted    -0.1486033E-02 (  52.77%)
   displ. norm   :     0.3994506 α      lambda       -0.2869769E-02
   maximum displ.:     0.1656019 α      in ANC's #35, #14, #19, ...

........................................................................
.............................. CYCLE   32 ..............................
........................................................................

 iter      E             dE          RMSdq      gap      omega  full diag
   1    -46.4550477 -0.464550E+02  0.117E-01    8.75       0.0  T
   2    -46.4550788 -0.310830E-04  0.614E-02    8.79       1.0  T
   3    -46.4550822 -0.341908E-05  0.125E-02    8.81       1.6  T
   4    -46.4550826 -0.367701E-06  0.508E-04    8.81      40.2  T
   5    -46.4550826 -0.171666E-08  0.103E-04    8.81     199.0  T
   6    -46.4550826 -0.598774E-10  0.208E-05    8.81     981.8  T
     SCC iter.                  ...        0 min,  0.007 sec
     gradient                   ...        0 min,  0.015 sec
 * total energy  :   -46.1537263 Eh     change        0.2877165E-02 Eh
   gradient norm :     0.0776192 Eh/α   predicted    -0.1663841E-02 (-157.83%)
   displ. norm   :     0.2797947 α      lambda       -0.6160276E-02
   maximum displ.:     0.2331864 α      in ANC's #18, #41, #29, ...

........................................................................
.............................. CYCLE   33 ..............................
........................................................................

 iter      E             dE          RMSdq      gap      omega  full diag
   1    -46.4658827 -0.464659E+02  0.953E-02    8.95       0.0  T
   2    -46.4659021 -0.193369E-04  0.503E-02    8.90       1.0  T
   3    -46.4659043 -0.222917E-05  0.993E-03    8.87       2.1  T
   4    -46.4659045 -0.245785E-06  0.265E-04    8.88      77.0  T
   5    -46.4659045 -0.391744E-09  0.795E-05    8.88     256.7  T
   6    -46.4659045 -0.384190E-10  0.329E-06    8.88    6210.5  T
     SCC iter.                  ...        0 min,  0.010 sec
     gradient                   ...        0 min,  0.001 sec
 * total energy  :   -46.1559105 Eh     change       -0.2184163E-02 Eh
   gradient norm :     0.0444207 Eh/α   predicted    -0.3321272E-02 (  52.06%)
   displ. norm   :     0.4816737 α      lambda       -0.4718344E-02
   maximum displ.:     0.2512037 α      in ANC's #14, #25, #35, ...

........................................................................
.............................. CYCLE   34 ..............................
........................................................................

 iter      E             dE          RMSdq      gap      omega  full diag
   1    -46.4379979 -0.464380E+02  0.170E-01    8.85       0.0  T
   2    -46.4380717 -0.738547E-04  0.874E-02    8.86       1.0  T
   3    -46.4380785 -0.682111E-05  0.190E-02    8.87       1.1  T
   4    -46.4380793 -0.771184E-06  0.517E-04    8.87      39.5  T
   5    -46.4380793 -0.196964E-08  0.127E-04    8.87     160.3  T
   6    -46.4380793 -0.104663E-09  0.240E-05    8.87     852.0  T
     SCC iter.                  ...        0 min,  0.020 sec
     gradient                   ...        0 min,  0.001 sec
 * total energy  :   -46.1529508 Eh     change        0.2959682E-02 Eh
   gradient norm :     0.0828368 Eh/α   predicted    -0.2906519E-02 (-198.20%)
   displ. norm   :     0.3350871 α      lambda       -0.1058316E-01
   maximum displ.:     0.2618521 α      in ANC's #14, #16, #19, ...

........................................................................
.............................. CYCLE   35 ..............................
........................................................................

 iter      E             dE          RMSdq      gap      omega  full diag
   1    -46.4593991 -0.464594E+02  0.136E-01    8.87       0.0  T
   2    -46.4594392 -0.400124E-04  0.718E-02    8.87       1.0  T
   3    -46.4594437 -0.453981E-05  0.143E-02    8.87       1.4  T
   4    -46.4594442 -0.506294E-06  0.171E-04    8.87     119.5  T
   5    -46.4594442 -0.163290E-09  0.690E-05    8.87     295.7  T
     SCC iter.                  ...        0 min,  0.006 sec
     gradient                   ...        0 min,  0.002 sec
 * total energy  :   -46.1568466 Eh     change       -0.3895820E-02 Eh
   gradient norm :     0.0240805 Eh/α   predicted    -0.5885740E-02 (  51.08%)
   displ. norm   :     0.3895526 α      lambda       -0.2119307E-02
   maximum displ.:     0.2096493 α      in ANC's #19, #28, #14, ...

........................................................................
.............................. CYCLE   36 ..............................
........................................................................

 iter      E             dE          RMSdq      gap      omega  full diag
   1    -46.4514479 -0.464514E+02  0.990E-02    8.80       0.0  T
   2    -46.4514698 -0.219127E-04  0.519E-02    8.79       1.0  T
   3    -46.4514722 -0.235537E-05  0.105E-02    8.78       1.9  T
   4    -46.4514725 -0.265933E-06  0.421E-04    8.78      48.5  T
   5    -46.4514725 -0.109380E-08  0.844E-05    8.78     242.0  T
   6    -46.4514725 -0.418297E-10  0.131E-05    8.78    1558.7  T
     SCC iter.                  ...        0 min,  0.010 sec
     gradient                   ...        0 min,  0.002 sec
 * total energy  :   -46.1548795 Eh     change        0.1967154E-02 Eh
   gradient norm :     0.0669453 Eh/α   predicted    -0.1220460E-02 (-162.04%)
   displ. norm   :     0.2203719 α      lambda       -0.4668834E-02
   maximum displ.:     0.0994322 α      in ANC's #29, #15, #18, ...

........................................................................
.............................. CYCLE   37 ..............................
........................................................................

 iter      E             dE          RMSdq      gap      omega  full diag
   1    -46.4571695 -0.464572E+02  0.812E-02    8.86       0.0  T
   2    -46.4571836 -0.140490E-04  0.429E-02    8.87       1.0  T
   3    -46.4571852 -0.156662E-05  0.849E-03    8.88       2.4  T
   4    -46.4571853 -0.180965E-06  0.226E-04    8.88      90.5  T
   5    -46.4571853 -0.284977E-09  0.654E-05    8.88     312.2  T
   6    -46.4571853 -0.257998E-10  0.304E-06    8.88    6718.6  T
     SCC iter.                  ...        0 min,  0.008 sec
     gradient                   ...        0 min,  0.002 sec
 * total energy  :   -46.1571805 Eh     change       -0.2300996E-02 Eh
   gradient norm :     0.0178752 Eh/α   predicted    -0.2447786E-02 (   6.38%)
   displ. norm   :     0.4070477 α      lambda       -0.1344686E-02
   maximum displ.:     0.2592834 α      in ANC's #25, #22, #23, ...

........................................................................
.............................. CYCLE   38 ..............................
........................................................................

 iter      E             dE          RMSdq      gap      omega  full diag
   1    -46.4567303 -0.464567E+02  0.640E-02    8.82       0.0  T
   2    -46.4567396 -0.930727E-05  0.336E-02    8.82       1.0  T
   3    -46.4567407 -0.101208E-05  0.685E-03    8.82       3.0  T
   4    -46.4567408 -0.112113E-06  0.222E-04    8.82      92.1  T
   5    -46.4567408 -0.297220E-09  0.499E-05    8.82     408.8  T
   6    -46.4567408 -0.151061E-10  0.522E-06    8.82    3909.4  T
     SCC iter.                  ...        0 min,  0.025 sec
     gradient                   ...        0 min,  0.006 sec
 * total energy  :   -46.1568333 Eh     change        0.3471842E-03 Eh
   gradient norm :     0.0411654 Eh/α   predicted    -0.7837491E-03 (-325.74%)
   displ. norm   :     0.1901360 α      lambda       -0.1904300E-02
   maximum displ.:     0.1005555 α      in ANC's #19, #40, #28, ...

........................................................................
.............................. CYCLE   39 ..............................
........................................................................

 iter      E             dE          RMSdq      gap      omega  full diag
   1    -46.4581103 -0.464581E+02  0.467E-02    8.86       0.0  T
   2    -46.4581152 -0.498250E-05  0.244E-02    8.87       1.0  T
   3    -46.4581158 -0.560799E-06  0.498E-03    8.87       4.1  T
   4    -46.4581159 -0.586212E-07  0.167E-04    8.87     122.3  T
   5    -46.4581159 -0.165187E-09  0.362E-05    8.87     563.3  T
     SCC iter.                  ...        0 min,  0.021 sec
     gradient                   ...        0 min,  0.002 sec
 * total energy  :   -46.1577898 Eh     change       -0.9564647E-03 Eh
   gradient norm :     0.0137570 Eh/α   predicted    -0.9865734E-03 (   3.15%)
   displ. norm   :     0.4064932 α      lambda       -0.8832780E-03
   maximum displ.:     0.2391327 α      in ANC's #19, #25, #40, ...

........................................................................
.............................. CYCLE   40 ..............................
........................................................................

 iter      E             dE          RMSdq      gap      omega  full diag
   1    -46.4537004 -0.464537E+02  0.282E-02    8.84       0.0  T
   2    -46.4537025 -0.207605E-05  0.146E-02    8.84       1.4  T
   3    -46.4537028 -0.283154E-06  0.306E-03    8.84       6.7  T
   4    -46.4537028 -0.192702E-07  0.279E-04    8.84      73.2  T
   5    -46.4537028 -0.433481E-09  0.849E-06    8.84    2405.7  T
   6    -46.4537028 -0.497380E-12  0.139E-06    8.84   14693.1  T
     SCC iter.                  ...        0 min,  0.021 sec
     gradient                   ...        0 min,  0.003 sec
 * total energy  :   -46.1576966 Eh     change        0.9312321E-04 Eh
   gradient norm :     0.0348700 Eh/α   predicted    -0.5146142E-03 (-652.62%)
   displ. norm   :     0.3338904 α      lambda       -0.1396177E-02
   maximum displ.:     0.2002778 α      in ANC's #25, #19, #24, ...

........................................................................
.............................. CYCLE   41 ..............................
........................................................................

 iter      E             dE          RMSdq      gap      omega  full diag
   1    -46.4563018 -0.464563E+02  0.182E-02    8.86       0.0  T
   2    -46.4563026 -0.821476E-06  0.951E-03    8.86       2.1  T
   3    -46.4563028 -0.118688E-06  0.193E-03    8.86      10.6  T
   4    -46.4563028 -0.795045E-08  0.189E-04    8.86     108.0  T
   5    -46.4563028 -0.204537E-09  0.342E-06    8.86    5967.7  T
     SCC iter.                  ...        0 min,  0.010 sec
     gradient                   ...        0 min,  0.002 sec
 * total energy  :   -46.1586269 Eh     change       -0.9302818E-03 Eh
   gradient norm :     0.0105743 Eh/α   predicted    -0.7759128E-03 ( -16.59%)
   displ. norm   :     0.6582411 α      lambda       -0.1279138E-02
   maximum displ.:     0.4342152 α      in ANC's #25, #19, #23, ...

........................................................................
.............................. CYCLE   42 ..............................
........................................................................

 iter      E             dE          RMSdq      gap      omega  full diag
   1    -46.4558788 -0.464559E+02  0.277E-02    8.83       0.0  T
   2    -46.4558803 -0.152349E-05  0.149E-02    8.83       1.4  T
   3    -46.4558805 -0.193972E-06  0.286E-03    8.83       7.1  T
   4    -46.4558805 -0.214118E-07  0.209E-04    8.83      97.7  T
   5    -46.4558805 -0.254630E-09  0.100E-05    8.83    2042.2  T
   6    -46.4558805 -0.682121E-12  0.187E-06    8.83   10939.1  T
     SCC iter.                  ...        0 min,  0.022 sec
     gradient                   ...        0 min,  0.002 sec
 * total energy  :   -46.1590819 Eh     change       -0.4549498E-03 Eh
   gradient norm :     0.0347968 Eh/α   predicted    -0.9166812E-03 ( 101.49%)
   displ. norm   :     0.5271103 α      lambda       -0.1601817E-02
   maximum displ.:     0.2840227 α      in ANC's #19, #25, #23, ...
 * RMSD in coord.:     1.0028787 α      energy gain  -0.5809733E-02 Eh

generating ANC from exact Hessian ...
Using Lindh-Hessian (1995)
 Shifting diagonal of input Hessian by   1.006071923496613E-002
 Lowest  eigenvalues of input Hessian
    0.010000    0.010014    0.010050    0.010051    0.010054    0.010057
    0.010058    0.010058    0.010059    0.000000    0.000000    0.000000
    0.000000    0.000000    0.000000    0.010063    0.010064    0.010065
 Highest eigenvalues
    1.428365    1.430368    1.430535    1.436810    1.449159    1.452934
 

........................................................................
.............................. CYCLE   43 ..............................
........................................................................

 iter      E             dE          RMSdq      gap      omega  full diag
   1    -46.4593019 -0.464593E+02  0.299E-02    8.83       0.0  T
   2    -46.4593041 -0.222040E-05  0.155E-02    8.83       1.3  T
   3    -46.4593044 -0.263687E-06  0.321E-03    8.82       6.4  T
   4    -46.4593044 -0.229075E-07  0.162E-04    8.82     126.3  T
   5    -46.4593044 -0.139813E-09  0.162E-05    8.82    1258.8  T
     SCC iter.                  ...        0 min,  0.022 sec
     gradient                   ...        0 min,  0.002 sec
 * total energy  :   -46.1603358 Eh     change       -0.1253939E-02 Eh
   gradient norm :     0.0200192 Eh/α   predicted     0.0000000E+00 (-100.00%)
   displ. norm   :     0.2091917 α      lambda       -0.8069208E-03
   maximum displ.:     0.1414266 α      in ANC's #42, #25, #30, ...

........................................................................
.............................. CYCLE   44 ..............................
........................................................................

 iter      E             dE          RMSdq      gap      omega  full diag
   1    -46.4585319 -0.464585E+02  0.910E-03    8.83       0.0  T
   2    -46.4585321 -0.207480E-06  0.479E-03    8.82       4.3  T
   3    -46.4585322 -0.323047E-07  0.949E-04    8.82      21.5  T
   4    -46.4585322 -0.206478E-08  0.105E-04    8.82     194.8  T
   5    -46.4585322 -0.536531E-10  0.262E-06    8.82    7802.6  T
     SCC iter.                  ...        0 min,  0.013 sec
     gradient                   ...        0 min,  0.002 sec
 * total energy  :   -46.1610224 Eh     change       -0.6866015E-03 Eh
   gradient norm :     0.0063920 Eh/α   predicted    -0.4211203E-03 ( -38.67%)
   displ. norm   :     0.5453723 α      lambda       -0.1430510E-02
   maximum displ.:     0.3383269 α      in ANC's #42, #30, #26, ...

........................................................................
.............................. CYCLE   45 ..............................
........................................................................

 iter      E             dE          RMSdq      gap      omega  full diag
   1    -46.4533176 -0.464533E+02  0.199E-02    8.80       0.0  T
   2    -46.4533183 -0.656754E-06  0.111E-02    8.79       1.8  T
   3    -46.4533184 -0.985880E-07  0.185E-03    8.79      11.1  T
   4    -46.4533184 -0.124413E-07  0.158E-04    8.79     129.0  T
   5    -46.4533184 -0.111115E-09  0.111E-05    8.79    1833.1  T
     SCC iter.                  ...        0 min,  0.019 sec
     gradient                   ...        0 min,  0.003 sec
 * total energy  :   -46.1622095 Eh     change       -0.1187059E-02 Eh
   gradient norm :     0.0207750 Eh/α   predicted    -0.9279946E-03 ( -21.82%)
   displ. norm   :     0.6581200 α      lambda       -0.1591457E-02
   maximum displ.:     0.3950274 α      in ANC's #42, #26, #20, ...

........................................................................
.............................. CYCLE   46 ..............................
........................................................................

 iter      E             dE          RMSdq      gap      omega  full diag
   1    -46.4498401 -0.464498E+02  0.186E-02    8.71       0.0  T
   2    -46.4498424 -0.224216E-05  0.925E-03    8.67       2.2  T
   3    -46.4498427 -0.332608E-06  0.293E-03    8.64       7.0  T
   4    -46.4498427 -0.144201E-07  0.203E-04    8.63     100.6  T
   5    -46.4498427 -0.149768E-09  0.195E-05    8.63    1049.0  T
   6    -46.4498427 -0.138556E-11  0.708E-06    8.63    2884.8  T
     SCC iter.                  ...        0 min,  0.008 sec
     gradient                   ...        0 min,  0.002 sec
 * total energy  :   -46.1637038 Eh     change       -0.1494380E-02 Eh
   gradient norm :     0.0307366 Eh/α   predicted    -0.1140376E-02 ( -23.69%)
   displ. norm   :     0.7748232 α      lambda       -0.2405320E-02
   maximum displ.:     0.4668305 α      in ANC's #42, #26, #20, ...

........................................................................
.............................. CYCLE   47 ..............................
........................................................................

 iter      E             dE          RMSdq      gap      omega  full diag
   1    -46.4525515 -0.464526E+02  0.300E-02    8.52       0.0  T
   2    -46.4525618 -0.103478E-04  0.129E-02    8.44       1.6  T
   3    -46.4525633 -0.153382E-05  0.491E-03    8.39       4.2  T
   4    -46.4525634 -0.623526E-07  0.449E-04    8.37      45.4  T
   5    -46.4525634 -0.736158E-09  0.490E-05    8.37     416.3  T
   6    -46.4525634 -0.112763E-10  0.154E-05    8.37    1329.0  T
     SCC iter.                  ...        0 min,  0.009 sec
     gradient                   ...        0 min,  0.003 sec
 * total energy  :   -46.1655680 Eh     change       -0.1864113E-02 Eh
   gradient norm :     0.0251925 Eh/α   predicted    -0.1924691E-02 (   3.25%)
   displ. norm   :     0.4595970 α      lambda       -0.1562390E-02
   maximum displ.:     0.2202525 α      in ANC's #20, #26, #42, ...

........................................................................
.............................. CYCLE   48 ..............................
........................................................................

 iter      E             dE          RMSdq      gap      omega  full diag
   1    -46.4692821 -0.464693E+02  0.595E-02    8.41       0.0  T
   2    -46.4692945 -0.124057E-04  0.300E-02    8.35       1.0  T
   3    -46.4692961 -0.159847E-05  0.722E-03    8.31       2.8  T
   4    -46.4692962 -0.854297E-07  0.377E-04    8.31      54.1  T
   5    -46.4692962 -0.694058E-09  0.586E-05    8.31     348.3  T
   6    -46.4692962 -0.189218E-10  0.146E-05    8.31    1393.8  T
     SCC iter.                  ...        0 min,  0.014 sec
     gradient                   ...        0 min,  0.002 sec
 * total energy  :   -46.1658562 Eh     change       -0.2882227E-03 Eh
   gradient norm :     0.0308710 Eh/α   predicted    -0.9462084E-03 ( 228.29%)
   displ. norm   :     0.3529885 α      lambda       -0.2064977E-02
   maximum displ.:     0.1916341 α      in ANC's #25, #22, #19, ...

........................................................................
.............................. CYCLE   49 ..............................
........................................................................

 iter      E             dE          RMSdq      gap      omega  full diag
   1    -46.4652280 -0.464652E+02  0.671E-02    8.22       0.0  T
   2    -46.4652365 -0.852160E-05  0.358E-02    8.22       1.0  T
   3    -46.4652375 -0.105538E-05  0.651E-03    8.22       3.1  T
   4    -46.4652377 -0.119551E-06  0.462E-04    8.21      44.2  T
   5    -46.4652377 -0.128963E-08  0.594E-05    8.21     343.7  T
   6    -46.4652377 -0.187228E-10  0.166E-05    8.21    1232.2  T
     SCC iter.                  ...        0 min,  0.021 sec
     gradient                   ...        0 min,  0.002 sec
 * total energy  :   -46.1653001 Eh     change        0.5560639E-03 Eh
   gradient norm :     0.0473568 Eh/α   predicted    -0.1161143E-02 (-308.81%)
   displ. norm   :     0.2658796 α      lambda       -0.3549739E-02
   maximum displ.:     0.1576574 α      in ANC's #42, #20, #22, ...

........................................................................
.............................. CYCLE   50 ..............................
........................................................................

 iter      E             dE          RMSdq      gap      omega  full diag
   1    -46.4656341 -0.464656E+02  0.530E-02    8.38       0.0  T
   2    -46.4656370 -0.289583E-05  0.300E-02    8.40       1.0  T
   3    -46.4656375 -0.470386E-06  0.389E-03    8.43       5.3  T
   4    -46.4656375 -0.681648E-07  0.246E-04    8.44      82.9  T
   5    -46.4656375 -0.259902E-09  0.570E-05    8.44     358.3  T
   6    -46.4656375 -0.122640E-10  0.145E-05    8.44    1412.2  T
     SCC iter.                  ...        0 min,  0.008 sec
     gradient                   ...        0 min,  0.002 sec
 * total energy  :   -46.1659744 Eh     change       -0.6742980E-03 Eh
   gradient norm :     0.0408443 Eh/α   predicted    -0.1900341E-02 ( 181.83%)
   displ. norm   :     0.4542900 α      lambda       -0.5227078E-02
   maximum displ.:     0.2426941 α      in ANC's #17, #13, #19, ...

........................................................................
.............................. CYCLE   51 ..............................
........................................................................

 iter      E             dE          RMSdq      gap      omega  full diag
   1    -46.4445878 -0.464446E+02  0.141E-01    8.31       0.0  T
   2    -46.4446346 -0.468592E-04  0.735E-02    8.33       1.0  T
   3    -46.4446394 -0.475323E-05  0.153E-02    8.34       1.3  T
   4    -46.4446399 -0.536146E-06  0.599E-04    8.34      34.1  T
   5    -46.4446399 -0.248495E-08  0.119E-04    8.34     171.1  T
   6    -46.4446399 -0.813429E-10  0.265E-05    8.34     770.2  T
     SCC iter.                  ...        0 min,  0.027 sec
     gradient                   ...        0 min,  0.003 sec
 * total energy  :   -46.1634287 Eh     change        0.2545745E-02 Eh
   gradient norm :     0.0809350 Eh/α   predicted    -0.3152917E-02 (-223.85%)
   displ. norm   :     0.3768239 α      lambda       -0.7845069E-02
   maximum displ.:     0.2291641 α      in ANC's #14, #13, #17, ...

........................................................................
.............................. CYCLE   52 ..............................
........................................................................

 iter      E             dE          RMSdq      gap      omega  full diag
   1    -46.4661743 -0.464662E+02  0.132E-01    8.33       0.0  T
   2    -46.4662111 -0.368587E-04  0.698E-02    8.34       1.0  T
   3    -46.4662155 -0.434287E-05  0.137E-02    8.35       1.5  T
   4    -46.4662159 -0.474058E-06  0.281E-04    8.35      72.7  T
   5    -46.4662159 -0.468980E-09  0.942E-05    8.35     216.7  T
   6    -46.4662159 -0.516494E-10  0.110E-05    8.35    1848.8  T
     SCC iter.                  ...        0 min,  0.025 sec
     gradient                   ...        0 min,  0.006 sec
 * total energy  :   -46.1655597 Eh     change       -0.2130995E-02 Eh
   gradient norm :     0.0525007 Eh/α   predicted    -0.4479519E-02 ( 110.21%)
   displ. norm   :     0.3259935 α      lambda       -0.3522448E-02
   maximum displ.:     0.1821481 α      in ANC's #32, #30, #36, ...

........................................................................
.............................. CYCLE   53 ..............................
........................................................................

 iter      E             dE          RMSdq      gap      omega  full diag
   1    -46.4706663 -0.464707E+02  0.744E-02    8.41       0.0  T
   2    -46.4706794 -0.130730E-04  0.391E-02    8.43       1.0  T
   3    -46.4706809 -0.143936E-05  0.811E-03    8.44       2.5  T
   4    -46.4706810 -0.154860E-06  0.340E-04    8.44      60.0  T
   5    -46.4706810 -0.678476E-09  0.617E-05    8.44     330.8  T
   6    -46.4706810 -0.206768E-10  0.107E-05    8.44    1906.3  T
     SCC iter.                  ...        0 min,  0.024 sec
     gradient                   ...        0 min,  0.002 sec
 * total energy  :   -46.1661582 Eh     change       -0.5985832E-03 Eh
   gradient norm :     0.0358165 Eh/α   predicted    -0.1948397E-02 ( 225.50%)
   displ. norm   :     0.4034374 α      lambda       -0.2546810E-02
   maximum displ.:     0.1566280 α      in ANC's #19, #20, #42, ...

........................................................................
.............................. CYCLE   54 ..............................
........................................................................

 iter      E             dE          RMSdq      gap      omega  full diag
   1    -46.4702836 -0.464703E+02  0.528E-02    8.47       0.0  T
   2    -46.4702926 -0.895215E-05  0.270E-02    8.43       1.0  T
   3    -46.4702937 -0.106060E-05  0.632E-03    8.40       3.2  T
   4    -46.4702937 -0.740005E-07  0.319E-04    8.40      64.1  T
   5    -46.4702937 -0.503221E-09  0.494E-05    8.40     412.9  T
   6    -46.4702937 -0.125837E-10  0.114E-05    8.40    1790.1  T
     SCC iter.                  ...        0 min,  0.010 sec
     gradient                   ...        0 min,  0.002 sec
 * total energy  :   -46.1674991 Eh     change       -0.1340908E-02 Eh
   gradient norm :     0.0188911 Eh/α   predicted    -0.1480667E-02 (  10.42%)
   displ. norm   :     0.3963789 α      lambda       -0.1142732E-02
   maximum displ.:     0.2184321 α      in ANC's #20, #25, #24, ...

........................................................................
.............................. CYCLE   55 ..............................
........................................................................

 iter      E             dE          RMSdq      gap      omega  full diag
   1    -46.4602780 -0.464603E+02  0.317E-02    8.36       0.0  T
   2    -46.4602806 -0.257150E-05  0.168E-02    8.35       1.2  T
   3    -46.4602808 -0.266491E-06  0.367E-03    8.34       5.6  T
   4    -46.4602809 -0.318766E-07  0.140E-04    8.34     146.0  T
   5    -46.4602809 -0.112259E-09  0.225E-05    8.34     909.2  T
     SCC iter.                  ...        0 min,  0.010 sec
     gradient                   ...        0 min,  0.002 sec
 * total energy  :   -46.1682411 Eh     change       -0.7419603E-03 Eh
   gradient norm :     0.0181606 Eh/α   predicted    -0.6611404E-03 ( -10.89%)
   displ. norm   :     0.5990202 α      lambda       -0.1551110E-02
   maximum displ.:     0.3273156 α      in ANC's #25, #20, #19, ...

........................................................................
.............................. CYCLE   56 ..............................
........................................................................

 iter      E             dE          RMSdq      gap      omega  full diag
   1    -46.4568549 -0.464569E+02  0.442E-02    8.34       0.0  T
   2    -46.4568602 -0.523475E-05  0.228E-02    8.33       1.0  T
   3    -46.4568607 -0.577604E-06  0.503E-03    8.33       4.1  T
   4    -46.4568608 -0.523739E-07  0.121E-04    8.33     169.1  T
   5    -46.4568608 -0.828209E-10  0.337E-05    8.33     605.7  T
     SCC iter.                  ...        0 min,  0.019 sec
     gradient                   ...        0 min,  0.002 sec
 * total energy  :   -46.1693200 Eh     change       -0.1078858E-02 Eh
   gradient norm :     0.0261758 Eh/α   predicted    -0.1053843E-02 (  -2.32%)
   displ. norm   :     0.6868063 α      lambda       -0.2070549E-02
   maximum displ.:     0.4276772 α      in ANC's #25, #20, #19, ...

........................................................................
.............................. CYCLE   57 ..............................
........................................................................

 iter      E             dE          RMSdq      gap      omega  full diag
   1    -46.4582211 -0.464582E+02  0.269E-02    8.36       0.0  T
   2    -46.4582245 -0.340279E-05  0.137E-02    8.33       1.5  T
   3    -46.4582250 -0.429076E-06  0.376E-03    8.31       5.4  T
   4    -46.4582250 -0.254397E-07  0.216E-04    8.30      94.5  T
   5    -46.4582250 -0.224190E-09  0.323E-05    8.30     631.1  T
   6    -46.4582250 -0.461853E-11  0.993E-06    8.30    2055.0  T
     SCC iter.                  ...        0 min,  0.010 sec
     gradient                   ...        0 min,  0.002 sec
 * total energy  :   -46.1712043 Eh     change       -0.1884359E-02 Eh
   gradient norm :     0.0289004 Eh/α   predicted    -0.1523616E-02 ( -19.14%)
   displ. norm   :     0.7760633 α      lambda       -0.3151893E-02
   maximum displ.:     0.4886630 α      in ANC's #25, #20, #24, ...

........................................................................
.............................. CYCLE   58 ..............................
........................................................................

 iter      E             dE          RMSdq      gap      omega  full diag
   1    -46.4723058 -0.464723E+02  0.513E-02    8.24       0.0  T
   2    -46.4723214 -0.156192E-04  0.254E-02    8.20       1.0  T
   3    -46.4723234 -0.199256E-05  0.772E-03    8.17       2.6  T
   4    -46.4723235 -0.843852E-07  0.499E-04    8.16      40.9  T
   5    -46.4723235 -0.101385E-08  0.826E-05    8.16     247.2  T
   6    -46.4723235 -0.350084E-10  0.237E-05    8.16     860.6  T
     SCC iter.                  ...        0 min,  0.005 sec
     gradient                   ...        0 min,  0.003 sec
 * total energy  :   -46.1733956 Eh     change       -0.2191320E-02 Eh
   gradient norm :     0.0306395 Eh/α   predicted    -0.2525102E-02 (  15.23%)
   displ. norm   :     0.8313529 α      lambda       -0.2600146E-02
   maximum displ.:     0.4778063 α      in ANC's #25, #20, #19, ...

........................................................................
.............................. CYCLE   59 ..............................
........................................................................

 iter      E             dE          RMSdq      gap      omega  full diag
   1    -46.4658378 -0.464658E+02  0.501E-02    8.13       0.0  T
   2    -46.4658579 -0.201706E-04  0.234E-02    8.05       1.0  T
   3    -46.4658608 -0.284553E-05  0.797E-03    7.98       2.6  T
   4    -46.4658609 -0.793379E-07  0.737E-04    7.97      27.7  T
   5    -46.4658609 -0.206091E-08  0.867E-05    7.97     235.3  T
   6    -46.4658609 -0.474856E-10  0.262E-05    7.97     778.5  T
     SCC iter.                  ...        0 min,  0.007 sec
     gradient                   ...        0 min,  0.014 sec
 * total energy  :   -46.1750856 Eh     change       -0.1689911E-02 Eh
   gradient norm :     0.0322933 Eh/α   predicted    -0.2198614E-02 (  30.10%)
   displ. norm   :     0.4448719 α      lambda       -0.2400328E-02
   maximum displ.:     0.2051850 α      in ANC's #20, #22, #24, ...

........................................................................
.............................. CYCLE   60 ..............................
........................................................................

 iter      E             dE          RMSdq      gap      omega  full diag
   1    -46.4634255 -0.464634E+02  0.535E-02    8.07       0.0  T
   2    -46.4634337 -0.820906E-05  0.276E-02    8.05       1.0  T
   3    -46.4634348 -0.112675E-05  0.584E-03    8.04       3.5  T
   4    -46.4634349 -0.704347E-07  0.620E-04    8.04      32.9  T
   5    -46.4634349 -0.196241E-08  0.399E-05    8.04     511.1  T
   6    -46.4634349 -0.102744E-10  0.888E-06    8.04    2297.5  T
     SCC iter.                  ...        0 min,  0.011 sec
     gradient                   ...        0 min,  0.002 sec
 * total energy  :   -46.1750663 Eh     change        0.1926902E-04 Eh
   gradient norm :     0.0480235 Eh/α   predicted    -0.1437697E-02 (*******%)
   displ. norm   :     0.3749769 α      lambda       -0.3466348E-02
   maximum displ.:     0.1569910 α      in ANC's #25, #22, #21, ...

........................................................................
.............................. CYCLE   61 ..............................
........................................................................

 iter      E             dE          RMSdq      gap      omega  full diag
   1    -46.4707699 -0.464708E+02  0.444E-02    7.93       0.0  T
   2    -46.4707811 -0.111489E-04  0.216E-02    7.90       1.0  T
   3    -46.4707827 -0.157962E-05  0.601E-03    7.87       3.4  T
   4    -46.4707827 -0.494289E-07  0.719E-04    7.87      28.4  T
   5    -46.4707827 -0.189492E-08  0.614E-05    7.87     332.3  T
   6    -46.4707827 -0.290754E-10  0.163E-05    7.87    1250.3  T
     SCC iter.                  ...        0 min,  0.024 sec
     gradient                   ...        0 min,  0.004 sec
 * total energy  :   -46.1765040 Eh     change       -0.1437732E-02 Eh
   gradient norm :     0.0197463 Eh/α   predicted    -0.1976875E-02 (  37.50%)
   displ. norm   :     0.4141639 α      lambda       -0.2101677E-02
   maximum displ.:     0.2003188 α      in ANC's #25, #22, #18, ...

........................................................................
.............................. CYCLE   62 ..............................
........................................................................

 iter      E             dE          RMSdq      gap      omega  full diag
   1    -46.4715390 -0.464715E+02  0.658E-02    7.94       0.0  T
   2    -46.4715677 -0.287197E-04  0.313E-02    8.00       1.0  T
   3    -46.4715713 -0.357274E-05  0.976E-03    8.05       2.1  T
   4    -46.4715714 -0.102414E-06  0.728E-04    8.06      28.0  T
   5    -46.4715714 -0.249181E-08  0.872E-05    8.06     234.2  T
   6    -46.4715714 -0.473293E-10  0.277E-05    8.06     736.0  T
     SCC iter.                  ...        0 min,  0.021 sec
     gradient                   ...        0 min,  0.003 sec
 * total energy  :   -46.1766984 Eh     change       -0.1943977E-03 Eh
   gradient norm :     0.0329966 Eh/α   predicted    -0.1231096E-02 ( 533.29%)
   displ. norm   :     0.5279993 α      lambda       -0.2131318E-02
   maximum displ.:     0.2324834 α      in ANC's #20, #24, #18, ...

........................................................................
.............................. CYCLE   63 ..............................
........................................................................

 iter      E             dE          RMSdq      gap      omega  full diag
   1    -46.4708400 -0.464708E+02  0.414E-02    8.07       0.0  T
   2    -46.4708463 -0.629155E-05  0.209E-02    8.04       1.0  T
   3    -46.4708470 -0.726355E-06  0.521E-03    8.02       3.9  T
   4    -46.4708471 -0.444431E-07  0.250E-04    8.02      81.7  T
   5    -46.4708471 -0.345828E-09  0.384E-05    8.02     531.1  T
   6    -46.4708471 -0.930100E-11  0.869E-06    8.02    2349.4  T
     SCC iter.                  ...        0 min,  0.009 sec
     gradient                   ...        0 min,  0.001 sec
 * total energy  :   -46.1782216 Eh     change       -0.1523166E-02 Eh
   gradient norm :     0.0213972 Eh/α   predicted    -0.1362748E-02 ( -10.53%)
   displ. norm   :     0.6648087 α      lambda       -0.2519981E-02
   maximum displ.:     0.3171068 α      in ANC's #24, #18, #20, ...

........................................................................
.............................. CYCLE   64 ..............................
........................................................................

 iter      E             dE          RMSdq      gap      omega  full diag
   1    -46.4651826 -0.464652E+02  0.860E-02    8.02       0.0  T
   2    -46.4652024 -0.197890E-04  0.443E-02    7.99       1.0  T
   3    -46.4652043 -0.195146E-05  0.980E-03    7.97       2.1  T
   4    -46.4652045 -0.204070E-06  0.438E-04    7.97      46.7  T
   5    -46.4652045 -0.120956E-08  0.739E-05    7.97     276.1  T
   6    -46.4652045 -0.305462E-10  0.154E-05    7.97    1322.6  T
     SCC iter.                  ...        0 min,  0.023 sec
     gradient                   ...        0 min,  0.002 sec
 * total energy  :   -46.1783639 Eh     change       -0.1423408E-03 Eh
   gradient norm :     0.0502371 Eh/α   predicted    -0.1816866E-02 (1176.42%)
   displ. norm   :     0.4147907 α      lambda       -0.4146279E-02
   maximum displ.:     0.2271969 α      in ANC's #21, #18, #19, ...

........................................................................
.............................. CYCLE   65 ..............................
........................................................................

 iter      E             dE          RMSdq      gap      omega  full diag
   1    -46.4751004 -0.464751E+02  0.687E-02    8.01       0.0  T
   2    -46.4751111 -0.107483E-04  0.358E-02    8.00       1.0  T
   3    -46.4751123 -0.115132E-05  0.728E-03    8.00       2.8  T
   4    -46.4751124 -0.128975E-06  0.183E-04    8.00     111.5  T
   5    -46.4751124 -0.227786E-09  0.508E-05    8.00     401.9  T
     SCC iter.                  ...        0 min,  0.020 sec
     gradient                   ...        0 min,  0.002 sec
 * total energy  :   -46.1805894 Eh     change       -0.2225493E-02 Eh
   gradient norm :     0.0191556 Eh/α   predicted    -0.2429830E-02 (   9.18%)
   displ. norm   :     0.6990926 α      lambda       -0.3147723E-02
   maximum displ.:     0.3626279 α      in ANC's #18, #24, #19, ...

........................................................................
.............................. CYCLE   66 ..............................
........................................................................

 iter      E             dE          RMSdq      gap      omega  full diag
   1    -46.4606010 -0.464606E+02  0.708E-02    7.98       0.0  T
   2    -46.4606194 -0.184352E-04  0.356E-02    8.05       1.0  T
   3    -46.4606218 -0.235991E-05  0.869E-03    8.11       2.3  T
   4    -46.4606219 -0.123849E-06  0.670E-04    8.11      30.5  T
   5    -46.4606219 -0.240996E-08  0.949E-05    8.11     215.1  T
   6    -46.4606219 -0.511449E-10  0.236E-05    8.11     865.9  T
     SCC iter.                  ...        0 min,  0.010 sec
     gradient                   ...        0 min,  0.002 sec
 * total energy  :   -46.1815224 Eh     change       -0.9330302E-03 Eh
   gradient norm :     0.0473731 Eh/α   predicted    -0.2343055E-02 ( 151.12%)
   displ. norm   :     0.5305000 α      lambda       -0.4456845E-02
   maximum displ.:     0.2922335 α      in ANC's #18, #24, #19, ...
 * RMSD in coord.:     1.7194446 α      energy gain  -0.2244059E-01 Eh

generating ANC from exact Hessian ...
Using Lindh-Hessian (1995)
 Shifting diagonal of input Hessian by   1.022226946689008E-002
 Lowest  eigenvalues of input Hessian
    0.010000    0.010069    0.010082    0.010134    0.010138    0.010184
    0.010190    0.010200    0.010208    0.010217    0.000000    0.000000
    0.000000    0.000000    0.000000    0.000000    0.010225    0.010231
 Highest eigenvalues
    1.410912    1.414122    1.415596    1.419623    1.446468    1.454681
 

........................................................................
.............................. CYCLE   67 ..............................
........................................................................

 iter      E             dE          RMSdq      gap      omega  full diag
   1    -46.4724609 -0.464725E+02  0.453E-02    8.23       0.0  T
   2    -46.4724676 -0.676188E-05  0.230E-02    8.23       1.0  T
   3    -46.4724685 -0.862731E-06  0.535E-03    8.24       3.8  T
   4    -46.4724686 -0.535200E-07  0.282E-04    8.24      72.4  T
   5    -46.4724686 -0.410722E-09  0.492E-05    8.24     414.7  T
   6    -46.4724686 -0.132161E-10  0.150E-05    8.24    1358.6  T
     SCC iter.                  ...        0 min,  0.006 sec
     gradient                   ...        0 min,  0.003 sec
 * total energy  :   -46.1843333 Eh     change       -0.2810805E-02 Eh
   gradient norm :     0.0335382 Eh/α   predicted     0.0000000E+00 (-100.00%)
   displ. norm   :     0.3715570 α      lambda       -0.2934328E-02
   maximum displ.:     0.1909548 α      in ANC's #33, #35, #32, ...

........................................................................
.............................. CYCLE   68 ..............................
........................................................................

 iter      E             dE          RMSdq      gap      omega  full diag
   1    -46.4744415 -0.464744E+02  0.339E-02    8.27       0.0  T
   2    -46.4744454 -0.393686E-05  0.172E-02    8.27       1.2  T
   3    -46.4744460 -0.561808E-06  0.385E-03    8.26       5.3  T
   4    -46.4744460 -0.278210E-07  0.401E-04    8.26      51.0  T
   5    -46.4744460 -0.843102E-09  0.219E-05    8.26     932.4  T
   6    -46.4744460 -0.250822E-11  0.719E-06    8.26    2837.2  T
     SCC iter.                  ...        0 min,  0.011 sec
     gradient                   ...        0 min,  0.016 sec
 * total energy  :   -46.1867971 Eh     change       -0.2463817E-02 Eh
   gradient norm :     0.0127563 Eh/α   predicted    -0.1669834E-02 ( -32.23%)
   displ. norm   :     0.7112763 α      lambda       -0.3767139E-02
   maximum displ.:     0.3707745 α      in ANC's #33, #35, #30, ...

........................................................................
.............................. CYCLE   69 ..............................
........................................................................

 iter      E             dE          RMSdq      gap      omega  full diag
   1    -46.4733935 -0.464734E+02  0.408E-02    8.30       0.0  T
   2    -46.4734009 -0.745882E-05  0.205E-02    8.30       1.0  T
   3    -46.4734021 -0.118255E-05  0.505E-03    8.28       4.0  T
   4    -46.4734022 -0.448182E-07  0.598E-04    8.27      34.1  T
   5    -46.4734022 -0.156085E-08  0.413E-05    8.27     493.7  T
   6    -46.4734022 -0.719780E-11  0.151E-05    8.27    1356.2  T
     SCC iter.                  ...        0 min,  0.008 sec
     gradient                   ...        0 min,  0.006 sec
 * total energy  :   -46.1897943 Eh     change       -0.2997253E-02 Eh
   gradient norm :     0.0336810 Eh/α   predicted    -0.2836499E-02 (  -5.36%)
   displ. norm   :     0.7564631 α      lambda       -0.3876856E-02
   maximum displ.:     0.3488163 α      in ANC's #33, #35, #30, ...

........................................................................
.............................. CYCLE   70 ..............................
........................................................................

 iter      E             dE          RMSdq      gap      omega  full diag
   1    -46.4761177 -0.464761E+02  0.471E-02    8.24       0.0  T
   2    -46.4761278 -0.101340E-04  0.234E-02    8.20       1.0  T
   3    -46.4761293 -0.145977E-05  0.610E-03    8.17       3.3  T
   4    -46.4761294 -0.612277E-07  0.558E-04    8.16      36.6  T
   5    -46.4761294 -0.135403E-08  0.592E-05    8.16     345.1  T
   6    -46.4761294 -0.215508E-10  0.196E-05    8.16    1039.2  T
     SCC iter.                  ...        0 min,  0.024 sec
     gradient                   ...        0 min,  0.003 sec
 * total energy  :   -46.1926281 Eh     change       -0.2833769E-02 Eh
   gradient norm :     0.0358690 Eh/α   predicted    -0.3047668E-02 (   7.55%)
   displ. norm   :     0.7122662 α      lambda       -0.3903459E-02
   maximum displ.:     0.3032869 α      in ANC's #30, #35, #18, ...

........................................................................
.............................. CYCLE   71 ..............................
........................................................................

 iter      E             dE          RMSdq      gap      omega  full diag
   1    -46.4714351 -0.464714E+02  0.608E-02    8.17       0.0  T
   2    -46.4714610 -0.258607E-04  0.303E-02    8.11       1.0  T
   3    -46.4714643 -0.332451E-05  0.101E-02    8.08       2.0  T
   4    -46.4714644 -0.127493E-06  0.739E-04    8.07      27.6  T
   5    -46.4714644 -0.258246E-08  0.957E-05    8.08     213.2  T
   6    -46.4714644 -0.545270E-10  0.313E-05    8.08     652.2  T
     SCC iter.                  ...        0 min,  0.025 sec
     gradient                   ...        0 min,  0.004 sec
 * total energy  :   -46.1945693 Eh     change       -0.1941172E-02 Eh
   gradient norm :     0.0332808 Eh/α   predicted    -0.2941917E-02 (  51.55%)
   displ. norm   :     0.4485203 α      lambda       -0.3302125E-02
   maximum displ.:     0.2733257 α      in ANC's #19, #18, #16, ...

........................................................................
.............................. CYCLE   72 ..............................
........................................................................

 iter      E             dE          RMSdq      gap      omega  full diag
   1    -46.4925153 -0.464925E+02  0.610E-02    8.12       0.0  T
   2    -46.4925241 -0.884789E-05  0.318E-02    8.13       1.0  T
   3    -46.4925252 -0.108797E-05  0.644E-03    8.13       3.2  T
   4    -46.4925253 -0.961323E-07  0.250E-04    8.13      81.5  T
   5    -46.4925253 -0.399460E-09  0.542E-05    8.13     376.8  T
   6    -46.4925253 -0.156817E-10  0.112E-05    8.13    1815.7  T
     SCC iter.                  ...        0 min,  0.023 sec
     gradient                   ...        0 min,  0.005 sec
 * total energy  :   -46.1961148 Eh     change       -0.1545551E-02 Eh
   gradient norm :     0.0296842 Eh/α   predicted    -0.1983209E-02 (  28.32%)
   displ. norm   :     0.5621604 α      lambda       -0.3252744E-02
   maximum displ.:     0.2895247 α      in ANC's #19, #30, #16, ...

........................................................................
.............................. CYCLE   73 ..............................
........................................................................

 iter      E             dE          RMSdq      gap      omega  full diag
   1    -46.4860734 -0.464861E+02  0.605E-02    8.06       0.0  T
   2    -46.4860870 -0.136395E-04  0.310E-02    8.05       1.0  T
   3    -46.4860886 -0.152455E-05  0.760E-03    8.03       2.7  T
   4    -46.4860887 -0.112348E-06  0.541E-04    8.03      37.7  T
   5    -46.4860887 -0.162477E-08  0.691E-05    8.03     295.6  T
   6    -46.4860887 -0.246700E-10  0.189E-05    8.03    1080.2  T
     SCC iter.                  ...        0 min,  0.009 sec
     gradient                   ...        0 min,  0.003 sec
 * total energy  :   -46.1978157 Eh     change       -0.1700856E-02 Eh
   gradient norm :     0.0455821 Eh/α   predicted    -0.2140349E-02 (  25.84%)
   displ. norm   :     0.5990591 α      lambda       -0.5118677E-02
   maximum displ.:     0.2383143 α      in ANC's #16, #14, #30, ...

........................................................................
.............................. CYCLE   74 ..............................
........................................................................

 iter      E             dE          RMSdq      gap      omega  full diag
   1    -46.4823764 -0.464824E+02  0.558E-02    7.93       0.0  T
   2    -46.4823822 -0.574252E-05  0.313E-02    7.91       1.0  T
   3    -46.4823835 -0.127244E-05  0.491E-03    7.89       4.2  T
   4    -46.4823835 -0.765873E-07  0.726E-04    7.89      28.1  T
   5    -46.4823835 -0.250863E-08  0.628E-05    7.89     325.1  T
   6    -46.4823835 -0.167404E-10  0.252E-05    7.89     809.3  T
     SCC iter.                  ...        0 min,  0.022 sec
     gradient                   ...        0 min,  0.003 sec
 * total energy  :   -46.1993908 Eh     change       -0.1575153E-02 Eh
   gradient norm :     0.0497017 Eh/α   predicted    -0.3477817E-02 ( 120.79%)
   displ. norm   :     0.5116592 α      lambda       -0.5094966E-02
   maximum displ.:     0.3035851 α      in ANC's #19, #23, #16, ...

........................................................................
.............................. CYCLE   75 ..............................
........................................................................

 iter      E             dE          RMSdq      gap      omega  full diag
   1    -46.4788303 -0.464788E+02  0.618E-02    7.81       0.0  T
   2    -46.4788413 -0.110294E-04  0.325E-02    7.76       1.0  T
   3    -46.4788430 -0.171944E-05  0.700E-03    7.72       2.9  T
   4    -46.4788431 -0.101042E-06  0.686E-04    7.71      29.7  T
   5    -46.4788431 -0.228972E-08  0.549E-05    7.71     371.5  T
   6    -46.4788431 -0.177351E-10  0.171E-05    7.71    1192.4  T
     SCC iter.                  ...        0 min,  0.020 sec
     gradient                   ...        0 min,  0.002 sec
 * total energy  :   -46.2017916 Eh     change       -0.2400758E-02 Eh
   gradient norm :     0.0367830 Eh/α   predicted    -0.3214403E-02 (  33.89%)
   displ. norm   :     0.5814031 α      lambda       -0.4836227E-02
   maximum displ.:     0.3370159 α      in ANC's #16, #19, #31, ...

........................................................................
.............................. CYCLE   76 ..............................
........................................................................

 iter      E             dE          RMSdq      gap      omega  full diag
   1    -46.4954726 -0.464955E+02  0.939E-02    7.78       0.0  T
   2    -46.4955007 -0.280955E-04  0.483E-02    7.73       1.0  T
   3    -46.4955043 -0.355955E-05  0.108E-02    7.69       1.9  T
   4    -46.4955045 -0.251072E-06  0.818E-04    7.69      25.0  T
   5    -46.4955045 -0.353869E-08  0.127E-04    7.69     160.2  T
   6    -46.4955045 -0.801563E-10  0.349E-05    7.69     584.3  T
     SCC iter.                  ...        0 min,  0.010 sec
     gradient                   ...        0 min,  0.003 sec
 * total energy  :   -46.2023416 Eh     change       -0.5500293E-03 Eh
   gradient norm :     0.0516138 Eh/α   predicted    -0.3235512E-02 ( 488.24%)
   displ. norm   :     0.4448599 α      lambda       -0.4518151E-02
   maximum displ.:     0.2215187 α      in ANC's #16, #17, #18, ...

........................................................................
.............................. CYCLE   77 ..............................
........................................................................

 iter      E             dE          RMSdq      gap      omega  full diag
   1    -46.4943983 -0.464944E+02  0.646E-02    7.59       0.0  T
   2    -46.4944131 -0.148013E-04  0.328E-02    7.56       1.0  T
   3    -46.4944148 -0.167449E-05  0.774E-03    7.53       2.6  T
   4    -46.4944149 -0.118503E-06  0.590E-04    7.52      34.6  T
   5    -46.4944149 -0.186283E-08  0.711E-05    7.52     287.2  T
   6    -46.4944149 -0.297646E-10  0.183E-05    7.52    1115.1  T
     SCC iter.                  ...        0 min,  0.021 sec
     gradient                   ...        0 min,  0.006 sec
 * total energy  :   -46.2045639 Eh     change       -0.2222261E-02 Eh
   gradient norm :     0.0324480 Eh/α   predicted    -0.2706152E-02 (  21.77%)
   displ. norm   :     0.4248661 α      lambda       -0.3328236E-02
   maximum displ.:     0.2325370 α      in ANC's #16, #17, #33, ...

........................................................................
.............................. CYCLE   78 ..............................
........................................................................

 iter      E             dE          RMSdq      gap      omega  full diag
   1    -46.4801194 -0.464801E+02  0.761E-02    7.54       0.0  T
   2    -46.4801506 -0.312569E-04  0.370E-02    7.55       1.0  T
   3    -46.4801543 -0.362853E-05  0.103E-02    7.55       2.0  T
   4    -46.4801544 -0.155987E-06  0.766E-04    7.54      26.7  T
   5    -46.4801544 -0.336372E-08  0.112E-04    7.54     181.6  T
   6    -46.4801544 -0.670184E-10  0.306E-05    7.54     666.5  T
     SCC iter.                  ...        0 min,  0.027 sec
     gradient                   ...        0 min,  0.002 sec
 * total energy  :   -46.2053699 Eh     change       -0.8060711E-03 Eh
   gradient norm :     0.0376272 Eh/α   predicted    -0.1964510E-02 ( 143.71%)
   displ. norm   :     0.3825161 α      lambda       -0.2957847E-02
   maximum displ.:     0.2455826 α      in ANC's #16, #13, #17, ...

........................................................................
.............................. CYCLE   79 ..............................
........................................................................

 iter      E             dE          RMSdq      gap      omega  full diag
   1    -46.4929331 -0.464929E+02  0.656E-02    7.53       0.0  T
   2    -46.4929479 -0.147133E-04  0.338E-02    7.53       1.0  T
   3    -46.4929498 -0.191471E-05  0.799E-03    7.53       2.6  T
   4    -46.4929499 -0.119414E-06  0.573E-04    7.53      35.6  T
   5    -46.4929499 -0.191822E-08  0.850E-05    7.53     240.0  T
   6    -46.4929499 -0.451266E-10  0.219E-05    7.53     930.2  T
     SCC iter.                  ...        0 min,  0.009 sec
     gradient                   ...        0 min,  0.024 sec
 * total energy  :   -46.2062335 Eh     change       -0.8635400E-03 Eh
   gradient norm :     0.0366720 Eh/α   predicted    -0.1695316E-02 (  96.32%)
   displ. norm   :     0.3697022 α      lambda       -0.2811551E-02
   maximum displ.:     0.1864316 α      in ANC's #13, #16, #36, ...

........................................................................
.............................. CYCLE   80 ..............................
........................................................................

 iter      E             dE          RMSdq      gap      omega  full diag
   1    -46.4887353 -0.464887E+02  0.929E-02    7.57       0.0  T
   2    -46.4887607 -0.253902E-04  0.476E-02    7.56       1.0  T
   3    -46.4887635 -0.276842E-05  0.107E-02    7.55       1.9  T
   4    -46.4887637 -0.238156E-06  0.503E-04    7.55      40.6  T
   5    -46.4887637 -0.165029E-08  0.955E-05    7.55     213.8  T
   6    -46.4887637 -0.475282E-10  0.249E-05    7.55     818.4  T
     SCC iter.                  ...        0 min,  0.010 sec
     gradient                   ...        0 min,  0.002 sec
 * total energy  :   -46.2060551 Eh     change        0.1783963E-03 Eh
   gradient norm :     0.0474546 Eh/α   predicted    -0.1597920E-02 (-995.71%)
   displ. norm   :     0.2548046 α      lambda       -0.3379128E-02
   maximum displ.:     0.1281067 α      in ANC's #13, #29, #37, ...

........................................................................
.............................. CYCLE   81 ..............................
........................................................................

 iter      E             dE          RMSdq      gap      omega  full diag
   1    -46.4966371 -0.464966E+02  0.664E-02    7.60       0.0  T
   2    -46.4966475 -0.103557E-04  0.349E-02    7.61       1.0  T
   3    -46.4966487 -0.119237E-05  0.708E-03    7.61       2.9  T
   4    -46.4966488 -0.124642E-06  0.353E-04    7.61      57.9  T
   5    -46.4966488 -0.789917E-09  0.692E-05    7.61     295.1  T
   6    -46.4966488 -0.250324E-10  0.165E-05    7.61    1240.1  T
     SCC iter.                  ...        0 min,  0.010 sec
     gradient                   ...        0 min,  0.003 sec
 * total energy  :   -46.2072372 Eh     change       -0.1182095E-02 Eh
   gradient norm :     0.0215279 Eh/α   predicted    -0.1799259E-02 (  52.21%)
   displ. norm   :     0.2334321 α      lambda       -0.1222498E-02
   maximum displ.:     0.1006690 α      in ANC's #17, #34, #33, ...

........................................................................
.............................. CYCLE   82 ..............................
........................................................................

 iter      E             dE          RMSdq      gap      omega  full diag
   1    -46.4844156 -0.464844E+02  0.440E-02    7.57       0.0  T
   2    -46.4844215 -0.593285E-05  0.230E-02    7.56       1.0  T
   3    -46.4844223 -0.772518E-06  0.518E-03    7.55       3.9  T
   4    -46.4844223 -0.565255E-07  0.418E-04    7.55      48.8  T
   5    -46.4844223 -0.100314E-08  0.462E-05    7.55     442.0  T
   6    -46.4844223 -0.128253E-10  0.130E-05    7.55    1572.3  T
     SCC iter.                  ...        0 min,  0.029 sec
     gradient                   ...        0 min,  0.002 sec
 * total energy  :   -46.2070668 Eh     change        0.1703602E-03 Eh
   gradient norm :     0.0324020 Eh/α   predicted    -0.6445549E-03 (-478.35%)
   displ. norm   :     0.1725113 α      lambda       -0.1512448E-02
   maximum displ.:     0.0627259 α      in ANC's #34, #39, #16, ...

........................................................................
.............................. CYCLE   83 ..............................
........................................................................

 iter      E             dE          RMSdq      gap      omega  full diag
   1    -46.4883703 -0.464884E+02  0.353E-02    7.56       0.0  T
   2    -46.4883734 -0.308121E-05  0.193E-02    7.57       1.1  T
   3    -46.4883738 -0.448006E-06  0.381E-03    7.57       5.4  T
   4    -46.4883739 -0.432299E-07  0.323E-04    7.57      63.1  T
   5    -46.4883739 -0.521915E-09  0.398E-05    7.57     512.7  T
   6    -46.4883739 -0.109139E-10  0.133E-05    7.57    1529.0  T
     SCC iter.                  ...        0 min,  0.020 sec
     gradient                   ...        0 min,  0.004 sec
 * total energy  :   -46.2076495 Eh     change       -0.5826961E-03 Eh
   gradient norm :     0.0171613 Eh/α   predicted    -0.7787342E-03 (  33.64%)
   displ. norm   :     0.2999455 α      lambda       -0.1237276E-02
   maximum displ.:     0.1805185 α      in ANC's #23, #30, #37, ...

........................................................................
.............................. CYCLE   84 ..............................
........................................................................

 iter      E             dE          RMSdq      gap      omega  full diag
   1    -46.4979710 -0.464980E+02  0.510E-02    7.63       0.0  T
   2    -46.4979757 -0.470913E-05  0.288E-02    7.65       1.0  T
   3    -46.4979765 -0.761035E-06  0.465E-03    7.66       4.4  T
   4    -46.4979765 -0.871288E-07  0.537E-04    7.67      38.0  T
   5    -46.4979765 -0.118263E-08  0.524E-05    7.67     389.3  T
   6    -46.4979765 -0.195470E-10  0.180E-05    7.67    1132.6  T
     SCC iter.                  ...        0 min,  0.013 sec
     gradient                   ...        0 min,  0.004 sec
 * total energy  :   -46.2064401 Eh     change        0.1209425E-02 Eh
   gradient norm :     0.0482568 Eh/α   predicted    -0.6742958E-03 (-155.75%)
   displ. norm   :     0.2089582 α      lambda       -0.2860988E-02
   maximum displ.:     0.1423133 α      in ANC's #23, #34, #18, ...

........................................................................
.............................. CYCLE   85 ..............................
........................................................................

 iter      E             dE          RMSdq      gap      omega  full diag
   1    -46.4907901 -0.464908E+02  0.469E-02    7.66       0.0  T
   2    -46.4907927 -0.256976E-05  0.261E-02    7.65       1.0  T
   3    -46.4907931 -0.405779E-06  0.364E-03    7.63       5.6  T
   4    -46.4907931 -0.499427E-07  0.325E-04    7.63      62.8  T
   5    -46.4907932 -0.707708E-09  0.495E-05    7.63     412.3  T
   6    -46.4907932 -0.116813E-10  0.153E-05    7.63    1334.8  T
     SCC iter.                  ...        0 min,  0.009 sec
     gradient                   ...        0 min,  0.003 sec
 * total energy  :   -46.2077748 Eh     change       -0.1334672E-02 Eh
   gradient norm :     0.0177519 Eh/α   predicted    -0.1492958E-02 (  11.86%)
   displ. norm   :     0.3126477 α      lambda       -0.1505841E-02
   maximum displ.:     0.1865486 α      in ANC's #30, #17, #25, ...

........................................................................
.............................. CYCLE   86 ..............................
........................................................................

 iter      E             dE          RMSdq      gap      omega  full diag
   1    -46.4855597 -0.464856E+02  0.712E-02    7.54       0.0  T
   2    -46.4855785 -0.187816E-04  0.365E-02    7.52       1.0  T
   3    -46.4855805 -0.203678E-05  0.887E-03    7.50       2.3  T
   4    -46.4855807 -0.165329E-06  0.665E-04    7.50      30.7  T
   5    -46.4855807 -0.214231E-08  0.675E-05    7.50     302.5  T
   6    -46.4855807 -0.238103E-10  0.217E-05    7.50     940.7  T
     SCC iter.                  ...        0 min,  0.010 sec
     gradient                   ...        0 min,  0.003 sec
 * total energy  :   -46.2067732 Eh     change        0.1001529E-02 Eh
   gradient norm :     0.0430261 Eh/α   predicted    -0.8265202E-03 (-182.53%)
   displ. norm   :     0.1877850 α      lambda       -0.2721236E-02
   maximum displ.:     0.1124132 α      in ANC's #30, #17, #39, ...

........................................................................
.............................. CYCLE   87 ..............................
........................................................................

 iter      E             dE          RMSdq      gap      omega  full diag
   1    -46.4894290 -0.464894E+02  0.471E-02    7.54       0.0  T
   2    -46.4894362 -0.717724E-05  0.245E-02    7.55       1.0  T
   3    -46.4894370 -0.796149E-06  0.558E-03    7.56       3.7  T
   4    -46.4894371 -0.726133E-07  0.432E-04    7.56      47.3  T
   5    -46.4894371 -0.936872E-09  0.443E-05    7.56     461.0  T
   6    -46.4894371 -0.108571E-10  0.137E-05    7.56    1489.6  T
     SCC iter.                  ...        0 min,  0.007 sec
     gradient                   ...        0 min,  0.002 sec
 * total energy  :   -46.2081056 Eh     change       -0.1332393E-02 Eh
   gradient norm :     0.0100445 Eh/α   predicted    -0.1408601E-02 (   5.72%)
   displ. norm   :     0.1852727 α      lambda       -0.3674368E-03
   maximum displ.:     0.0728202 α      in ANC's #17, #4, #19, ...

........................................................................
.............................. CYCLE   88 ..............................
........................................................................

 iter      E             dE          RMSdq      gap      omega  full diag
   1    -46.4922800 -0.464923E+02  0.261E-02    7.65       0.0  T
   2    -46.4922835 -0.354857E-05  0.131E-02    7.66       1.6  T
   3    -46.4922839 -0.434298E-06  0.373E-03    7.68       5.5  T
   4    -46.4922840 -0.204688E-07  0.276E-04    7.68      73.9  T
   5    -46.4922840 -0.345352E-09  0.378E-05    7.68     540.4  T
   6    -46.4922840 -0.108855E-10  0.872E-06    7.68    2340.9  T
     SCC iter.                  ...        0 min,  0.023 sec
     gradient                   ...        0 min,  0.005 sec
 * total energy  :   -46.2080052 Eh     change        0.1004643E-03 Eh
   gradient norm :     0.0174660 Eh/α   predicted    -0.1900278E-03 (-289.15%)
   displ. norm   :     0.1427114 α      lambda       -0.4993583E-03
   maximum displ.:     0.0604123 α      in ANC's #17, #16, #9, ...

........................................................................
.............................. CYCLE   89 ..............................
........................................................................

 iter      E             dE          RMSdq      gap      omega  full diag
   1    -46.4893935 -0.464894E+02  0.184E-02    7.63       0.0  T
   2    -46.4893948 -0.128465E-05  0.961E-03    7.62       2.1  T
   3    -46.4893949 -0.156920E-06  0.240E-03    7.61       8.5  T
   4    -46.4893950 -0.113433E-07  0.162E-04    7.61     126.4  T
   5    -46.4893950 -0.131678E-09  0.217E-05    7.61     940.5  T
     SCC iter.                  ...        0 min,  0.008 sec
     gradient                   ...        0 min,  0.003 sec
 * total energy  :   -46.2083052 Eh     change       -0.2999867E-03 Eh
   gradient norm :     0.0089196 Eh/α   predicted    -0.2547683E-03 ( -15.07%)
   displ. norm   :     0.2265164 α      lambda       -0.3164962E-03
   maximum displ.:     0.1163227 α      in ANC's #16, #9, #2, ...

........................................................................
.............................. CYCLE   90 ..............................
........................................................................

 iter      E             dE          RMSdq      gap      omega  full diag
   1    -46.4898028 -0.464898E+02  0.183E-02    7.58       0.0  T
   2    -46.4898052 -0.237824E-05  0.835E-03    7.57       2.4  T
   3    -46.4898055 -0.290547E-06  0.257E-03    7.56       7.9  T
   4    -46.4898055 -0.758369E-08  0.241E-04    7.56      84.6  T
   5    -46.4898055 -0.246011E-09  0.287E-05    7.56     711.1  T
   6    -46.4898055 -0.657963E-11  0.550E-06    7.56    3714.0  T
     SCC iter.                  ...        0 min,  0.014 sec
     gradient                   ...        0 min,  0.003 sec
 * total energy  :   -46.2083183 Eh     change       -0.1317978E-04 Eh
   gradient norm :     0.0151534 Eh/α   predicted    -0.1663717E-03 (1162.33%)
   displ. norm   :     0.2219360 α      lambda       -0.4423067E-03
   maximum displ.:     0.0977545 α      in ANC's #9, #16, #18, ...

........................................................................
.............................. CYCLE   91 ..............................
........................................................................

 iter      E             dE          RMSdq      gap      omega  full diag
   1    -46.4891314 -0.464891E+02  0.149E-02    7.58       0.0  T
   2    -46.4891326 -0.115283E-05  0.714E-03    7.57       2.9  T
   3    -46.4891327 -0.143606E-06  0.187E-03    7.57      10.9  T
   4    -46.4891327 -0.530078E-08  0.202E-04    7.57     100.9  T
   5    -46.4891327 -0.185466E-09  0.132E-05    7.57    1549.1  T
   6    -46.4891327 -0.147082E-11  0.368E-06    7.57    5551.2  T
     SCC iter.                  ...        0 min,  0.029 sec
     gradient                   ...        0 min,  0.003 sec
 * total energy  :   -46.2085869 Eh     change       -0.2685791E-03 Eh
   gradient norm :     0.0105502 Eh/α   predicted    -0.2320503E-03 ( -13.60%)
   displ. norm   :     0.3303894 α      lambda       -0.4277323E-03
   maximum displ.:     0.1449248 α      in ANC's #9, #4, #6, ...

........................................................................
.............................. CYCLE   92 ..............................
........................................................................

 iter      E             dE          RMSdq      gap      omega  full diag
   1    -46.4905376 -0.464905E+02  0.200E-02    7.61       0.0  T
   2    -46.4905410 -0.340769E-05  0.907E-03    7.63       2.2  T
   3    -46.4905414 -0.439983E-06  0.302E-03    7.64       6.7  T
   4    -46.4905415 -0.114426E-07  0.288E-04    7.64      70.8  T
   5    -46.4905415 -0.269800E-09  0.331E-05    7.64     616.9  T
   6    -46.4905415 -0.965628E-11  0.695E-06    7.64    2938.0  T
     SCC iter.                  ...        0 min,  0.023 sec
     gradient                   ...        0 min,  0.005 sec
 * total energy  :   -46.2087279 Eh     change       -0.1410119E-03 Eh
   gradient norm :     0.0169257 Eh/α   predicted    -0.2372150E-03 (  68.22%)
   displ. norm   :     0.3327928 α      lambda       -0.4453854E-03
   maximum displ.:     0.1505845 α      in ANC's #9, #16, #6, ...
 * RMSD in coord.:     1.1465193 α      energy gain  -0.2720547E-01 Eh

generating ANC from exact Hessian ...
Using Lindh-Hessian (1995)
 Shifting diagonal of input Hessian by   1.015046276485702E-002
 Lowest  eigenvalues of input Hessian
    0.010000    0.010023    0.010053    0.010075    0.010093    0.010098
    0.010120    0.010130    0.000000    0.000000    0.000000    0.000000
    0.000000    0.000000    0.010163    0.010167    0.010175    0.010200
 Highest eigenvalues
    1.391002    1.400464    1.400633    1.414842    1.429852    1.433339
 

........................................................................
.............................. CYCLE   93 ..............................
........................................................................

 iter      E             dE          RMSdq      gap      omega  full diag
   1    -46.4881638 -0.464882E+02  0.169E-02    7.66       0.0  T
   2    -46.4881654 -0.157277E-05  0.831E-03    7.65       2.5  T
   3    -46.4881656 -0.202024E-06  0.235E-03    7.64       8.7  T
   4    -46.4881656 -0.738969E-08  0.215E-04    7.64      94.8  T
   5    -46.4881656 -0.212459E-09  0.185E-05    7.64    1104.5  T
   6    -46.4881656 -0.358114E-11  0.443E-06    7.64    4607.1  T
     SCC iter.                  ...        0 min,  0.027 sec
     gradient                   ...        0 min,  0.003 sec
 * total energy  :   -46.2089650 Eh     change       -0.2370684E-03 Eh
   gradient norm :     0.0152144 Eh/α   predicted     0.0000000E+00 (-100.00%)
   displ. norm   :     0.1300173 α      lambda       -0.3959351E-03
   maximum displ.:     0.0663893 α      in ANC's #10, #27, #33, ...

........................................................................
.............................. CYCLE   94 ..............................
........................................................................

 iter      E             dE          RMSdq      gap      omega  full diag
   1    -46.4906930 -0.464907E+02  0.947E-03    7.65       0.0  T
   2    -46.4906933 -0.315853E-06  0.470E-03    7.65       4.3  T
   3    -46.4906933 -0.378057E-07  0.108E-03    7.65      18.9  T
   4    -46.4906933 -0.206359E-08  0.874E-05    7.65     233.4  T
   5    -46.4906933 -0.457732E-10  0.984E-06    7.65    2075.2  T
     SCC iter.                  ...        0 min,  0.019 sec
     gradient                   ...        0 min,  0.003 sec
 * total energy  :   -46.2092598 Eh     change       -0.2948142E-03 Eh
   gradient norm :     0.0045485 Eh/α   predicted    -0.2013147E-03 ( -31.71%)
   displ. norm   :     0.2374341 α      lambda       -0.3519897E-03
   maximum displ.:     0.1248263 α      in ANC's #10, #27, #8, ...

........................................................................
.............................. CYCLE   95 ..............................
........................................................................

 iter      E             dE          RMSdq      gap      omega  full diag
   1    -46.4917564 -0.464918E+02  0.790E-03    7.67       0.0  T
   2    -46.4917566 -0.248869E-06  0.387E-03    7.67       5.3  T
   3    -46.4917567 -0.278560E-07  0.948E-04    7.67      21.5  T
   4    -46.4917567 -0.155683E-08  0.669E-05    7.66     304.9  T
   5    -46.4917567 -0.288125E-10  0.938E-06    7.66    2175.6  T
     SCC iter.                  ...        0 min,  0.009 sec
     gradient                   ...        0 min,  0.003 sec
 * total energy  :   -46.2095190 Eh     change       -0.2591758E-03 Eh
   gradient norm :     0.0075890 Eh/α   predicted    -0.1859418E-03 ( -28.26%)
   displ. norm   :     0.3238949 α      lambda       -0.3282810E-03
   maximum displ.:     0.1758376 α      in ANC's #10, #11, #8, ...

........................................................................
.............................. CYCLE   96 ..............................
........................................................................

 iter      E             dE          RMSdq      gap      omega  full diag
   1    -46.4904579 -0.464905E+02  0.808E-03    7.69       0.0  T
   2    -46.4904580 -0.149368E-06  0.435E-03    7.68       4.7  T
   3    -46.4904580 -0.183050E-07  0.842E-04    7.68      24.2  T
   4    -46.4904580 -0.214381E-08  0.657E-05    7.68     310.5  T
   5    -46.4904580 -0.260414E-10  0.904E-06    7.68    2257.2  T
     SCC iter.                  ...        0 min,  0.005 sec
     gradient                   ...        0 min,  0.003 sec
 * total energy  :   -46.2097761 Eh     change       -0.2571552E-03 Eh
   gradient norm :     0.0126392 Eh/α   predicted    -0.1813604E-03 ( -29.47%)
   displ. norm   :     0.4103739 α      lambda       -0.4199747E-03
   maximum displ.:     0.2245022 α      in ANC's #10, #11, #12, ...

........................................................................
.............................. CYCLE   97 ..............................
........................................................................

 iter      E             dE          RMSdq      gap      omega  full diag
   1    -46.4891040 -0.464891E+02  0.122E-02    7.73       0.0  T
   2    -46.4891044 -0.391153E-06  0.642E-03    7.73       3.2  T
   3    -46.4891044 -0.435742E-07  0.138E-03    7.72      14.8  T
   4    -46.4891044 -0.458102E-08  0.882E-05    7.72     231.4  T
   5    -46.4891044 -0.452047E-10  0.955E-06    7.72    2137.2  T
     SCC iter.                  ...        0 min,  0.007 sec
     gradient                   ...        0 min,  0.003 sec
 * total energy  :   -46.2100753 Eh     change       -0.2991794E-03 Eh
   gradient norm :     0.0135888 Eh/α   predicted    -0.2453644E-03 ( -17.99%)
   displ. norm   :     0.4556730 α      lambda       -0.5697963E-03
   maximum displ.:     0.2531541 α      in ANC's #10, #11, #12, ...

........................................................................
.............................. CYCLE   98 ..............................
........................................................................

 iter      E             dE          RMSdq      gap      omega  full diag
   1    -46.4893720 -0.464894E+02  0.135E-02    7.76       0.0  T
   2    -46.4893726 -0.602055E-06  0.695E-03    7.77       2.9  T
   3    -46.4893727 -0.806050E-07  0.160E-03    7.77      12.7  T
   4    -46.4893727 -0.503010E-08  0.128E-04    7.77     160.0  T
   5    -46.4893727 -0.814637E-10  0.123E-05    7.77    1655.2  T
     SCC iter.                  ...        0 min,  0.009 sec
     gradient                   ...        0 min,  0.003 sec
 * total energy  :   -46.2104771 Eh     change       -0.4018222E-03 Eh
   gradient norm :     0.0124920 Eh/α   predicted    -0.3440556E-03 ( -14.38%)
   displ. norm   :     0.5147513 α      lambda       -0.7706021E-03
   maximum displ.:     0.2775373 α      in ANC's #10, #11, #6, ...

........................................................................
.............................. CYCLE   99 ..............................
........................................................................

 iter      E             dE          RMSdq      gap      omega  full diag
   1    -46.4980464 -0.464980E+02  0.363E-02    7.86       0.0  T
   2    -46.4980500 -0.358136E-05  0.187E-02    7.85       1.1  T
   3    -46.4980504 -0.389928E-06  0.401E-03    7.84       5.1  T
   4    -46.4980504 -0.364534E-07  0.161E-04    7.85     126.5  T
   5    -46.4980504 -0.180933E-09  0.255E-05    7.85     800.2  T
     SCC iter.                  ...        0 min,  0.019 sec
     gradient                   ...        0 min,  0.002 sec
 * total energy  :   -46.2107905 Eh     change       -0.3133957E-03 Eh
   gradient norm :     0.0209422 Eh/α   predicted    -0.4873944E-03 (  55.52%)
   displ. norm   :     0.5771356 α      lambda       -0.9290688E-03
   maximum displ.:     0.3385347 α      in ANC's #10, #8, #12, ...

........................................................................
.............................. CYCLE  100 ..............................
........................................................................

 iter      E             dE          RMSdq      gap      omega  full diag
   1    -46.4915941 -0.464916E+02  0.294E-02    7.88       0.0  T
   2    -46.4915955 -0.143410E-05  0.160E-02    7.88       1.3  T
   3    -46.4915957 -0.171190E-06  0.274E-03    7.89       7.4  T
   4    -46.4915957 -0.243903E-07  0.171E-04    7.88     119.1  T
   5    -46.4915957 -0.172790E-09  0.251E-05    7.88     812.5  T
     SCC iter.                  ...        0 min,  0.009 sec
     gradient                   ...        0 min,  0.016 sec
 * total energy  :   -46.2114240 Eh     change       -0.6334194E-03 Eh
   gradient norm :     0.0182456 Eh/α   predicted    -0.6192650E-03 (  -2.23%)
   displ. norm   :     0.5202353 α      lambda       -0.9340222E-03
   maximum displ.:     0.2647576 α      in ANC's #10, #12, #8, ...

........................................................................
.............................. CYCLE  101 ..............................
........................................................................

 iter      E             dE          RMSdq      gap      omega  full diag
   1    -46.4867816 -0.464868E+02  0.348E-02    7.87       0.0  T
   2    -46.4867843 -0.272880E-05  0.185E-02    7.88       1.1  T
   3    -46.4867846 -0.309619E-06  0.359E-03    7.88       5.7  T
   4    -46.4867846 -0.353630E-07  0.292E-04    7.88      70.0  T
   5    -46.4867846 -0.500926E-09  0.273E-05    7.88     747.3  T
   6    -46.4867846 -0.587619E-11  0.670E-06    7.88    3045.2  T
     SCC iter.                  ...        0 min,  0.010 sec
     gradient                   ...        0 min,  0.004 sec
 * total energy  :   -46.2115996 Eh     change       -0.1756414E-03 Eh
   gradient norm :     0.0288141 Eh/α   predicted    -0.5934063E-03 ( 237.85%)
   displ. norm   :     0.3323721 α      lambda       -0.1245539E-02
   maximum displ.:     0.1669829 α      in ANC's #10, #11, #12, ...

........................................................................
.............................. CYCLE  102 ..............................
........................................................................

 iter      E             dE          RMSdq      gap      omega  full diag
   1    -46.4917983 -0.464918E+02  0.334E-02    7.94       0.0  T
   2    -46.4918013 -0.302025E-05  0.171E-02    7.93       1.2  T
   3    -46.4918016 -0.330461E-06  0.370E-03    7.92       5.5  T
   4    -46.4918016 -0.294764E-07  0.134E-04    7.92     152.6  T
   5    -46.4918016 -0.126811E-09  0.245E-05    7.92     834.5  T
     SCC iter.                  ...        0 min,  0.023 sec
     gradient                   ...        0 min,  0.005 sec
 * total energy  :   -46.2124237 Eh     change       -0.8241099E-03 Eh
   gradient norm :     0.0116059 Eh/α   predicted    -0.6915687E-03 ( -16.08%)
   displ. norm   :     0.6725560 α      lambda       -0.1043582E-02
   maximum displ.:     0.3401229 α      in ANC's #10, #12, #11, ...

........................................................................
.............................. CYCLE  103 ..............................
........................................................................

 iter      E             dE          RMSdq      gap      omega  full diag
   1    -46.4951781 -0.464952E+02  0.250E-02    7.98       0.0  T
   2    -46.4951800 -0.189353E-05  0.126E-02    7.98       1.6  T
   3    -46.4951802 -0.236732E-06  0.278E-03    7.97       7.3  T
   4    -46.4951802 -0.148256E-07  0.201E-04    7.97     101.4  T
   5    -46.4951802 -0.267349E-09  0.230E-05    7.97     885.6  T
   6    -46.4951802 -0.303402E-11  0.505E-06    7.97    4046.0  T
     SCC iter.                  ...        0 min,  0.022 sec
     gradient                   ...        0 min,  0.005 sec
 * total energy  :   -46.2131069 Eh     change       -0.6831462E-03 Eh
   gradient norm :     0.0208079 Eh/α   predicted    -0.7578197E-03 (  10.93%)
   displ. norm   :     0.7310945 α      lambda       -0.1204950E-02
   maximum displ.:     0.3894469 α      in ANC's #10, #12, #11, ...

........................................................................
.............................. CYCLE  104 ..............................
........................................................................

 iter      E             dE          RMSdq      gap      omega  full diag
   1    -46.4955387 -0.464955E+02  0.231E-02    8.04       0.0  T
   2    -46.4955400 -0.123449E-05  0.124E-02    8.04       1.6  T
   3    -46.4955401 -0.153795E-06  0.246E-03    8.04       8.3  T
   4    -46.4955401 -0.161844E-07  0.174E-04    8.04     117.0  T
   5    -46.4955401 -0.164064E-09  0.146E-05    8.04    1395.8  T
     SCC iter.                  ...        0 min,  0.006 sec
     gradient                   ...        0 min,  0.002 sec
 * total energy  :   -46.2141808 Eh     change       -0.1073939E-02 Eh
   gradient norm :     0.0204921 Eh/α   predicted    -0.9244987E-03 ( -13.92%)
   displ. norm   :     0.7545697 α      lambda       -0.1788837E-02
   maximum displ.:     0.3537433 α      in ANC's #12, #10, #6, ...

........................................................................
.............................. CYCLE  105 ..............................
........................................................................

 iter      E             dE          RMSdq      gap      omega  full diag
   1    -46.4962124 -0.464962E+02  0.290E-02    8.05       0.0  T
   2    -46.4962149 -0.245115E-05  0.156E-02    8.04       1.3  T
   3    -46.4962153 -0.429670E-06  0.331E-03    8.03       6.2  T
   4    -46.4962153 -0.232503E-07  0.403E-04    8.03      50.6  T
   5    -46.4962153 -0.845084E-09  0.305E-05    8.03     669.3  T
   6    -46.4962153 -0.625988E-11  0.107E-05    8.03    1904.9  T
     SCC iter.                  ...        0 min,  0.011 sec
     gradient                   ...        0 min,  0.003 sec
 * total energy  :   -46.2150583 Eh     change       -0.8775028E-03 Eh
   gradient norm :     0.0385506 Eh/α   predicted    -0.1403681E-02 (  59.96%)
   displ. norm   :     0.6763210 α      lambda       -0.2027008E-02
   maximum displ.:     0.3670741 α      in ANC's #10, #12, #6, ...

........................................................................
.............................. CYCLE  106 ..............................
........................................................................

 iter      E             dE          RMSdq      gap      omega  full diag
   1    -46.4873928 -0.464874E+02  0.423E-02    8.06       0.0  T
   2    -46.4873962 -0.338237E-05  0.226E-02    8.08       1.0  T
   3    -46.4873966 -0.387489E-06  0.423E-03    8.09       4.8  T
   4    -46.4873966 -0.500583E-07  0.228E-04    8.09      89.7  T
   5    -46.4873966 -0.346212E-09  0.387E-05    8.09     528.0  T
   6    -46.4873966 -0.838440E-11  0.109E-05    8.09    1876.6  T
     SCC iter.                  ...        0 min,  0.028 sec
     gradient                   ...        0 min,  0.003 sec
 * total energy  :   -46.2165296 Eh     change       -0.1471323E-02 Eh
   gradient norm :     0.0328921 Eh/α   predicted    -0.1477093E-02 (   0.39%)
   displ. norm   :     0.5119804 α      lambda       -0.3425971E-02
   maximum displ.:     0.1854405 α      in ANC's #12, #6, #18, ...

........................................................................
.............................. CYCLE  107 ..............................
........................................................................

 iter      E             dE          RMSdq      gap      omega  full diag
   1    -46.5000264 -0.465000E+02  0.571E-02    8.18       0.0  T
   2    -46.5000348 -0.834827E-05  0.296E-02    8.18       1.0  T
   3    -46.5000360 -0.122219E-05  0.597E-03    8.18       3.4  T
   4    -46.5000361 -0.751044E-07  0.617E-04    8.18      33.1  T
   5    -46.5000361 -0.222291E-08  0.599E-05    8.18     340.6  T
   6    -46.5000361 -0.241158E-10  0.151E-05    8.18    1354.4  T
     SCC iter.                  ...        0 min,  0.024 sec
     gradient                   ...        0 min,  0.003 sec
 * total energy  :   -46.2164268 Eh     change        0.1028414E-03 Eh
   gradient norm :     0.0658278 Eh/α   predicted    -0.2162000E-02 (*******%)
   displ. norm   :     0.4507964 α      lambda       -0.4429165E-02
   maximum displ.:     0.2091205 α      in ANC's #12, #10, #6, ...

........................................................................
.............................. CYCLE  108 ..............................
........................................................................

 iter      E             dE          RMSdq      gap      omega  full diag
   1    -46.4890008 -0.464890E+02  0.553E-02    8.18       0.0  T
   2    -46.4890059 -0.512112E-05  0.300E-02    8.18       1.0  T
   3    -46.4890067 -0.792785E-06  0.508E-03    8.18       4.0  T
   4    -46.4890067 -0.725841E-07  0.450E-04    8.18      45.4  T
   5    -46.4890067 -0.133251E-08  0.526E-05    8.18     388.1  T
   6    -46.4890067 -0.136851E-10  0.175E-05    8.18    1163.7  T
     SCC iter.                  ...        0 min,  0.022 sec
     gradient                   ...        0 min,  0.004 sec
 * total energy  :   -46.2187063 Eh     change       -0.2279536E-02 Eh
   gradient norm :     0.0371350 Eh/α   predicted    -0.2664626E-02 (  16.89%)
   displ. norm   :     0.5585204 α      lambda       -0.6509937E-02
   maximum displ.:     0.2290355 α      in ANC's #12, #27, #29, ...

........................................................................
.............................. CYCLE  109 ..............................
........................................................................

 iter      E             dE          RMSdq      gap      omega  full diag
   1    -46.4961567 -0.464962E+02  0.109E-01    8.13       0.0  T
   2    -46.4961721 -0.153849E-04  0.605E-02    8.13       1.0  T
   3    -46.4961746 -0.248490E-05  0.886E-03    8.12       2.3  T
   4    -46.4961749 -0.274015E-06  0.818E-04    8.12      25.0  T
   5    -46.4961749 -0.494496E-08  0.122E-04    8.12     167.4  T
   6    -46.4961749 -0.885478E-10  0.397E-05    8.12     514.2  T
     SCC iter.                  ...        0 min,  0.010 sec
     gradient                   ...        0 min,  0.002 sec
 * total energy  :   -46.2151403 Eh     change        0.3566015E-02 Eh
   gradient norm :     0.1004806 Eh/α   predicted    -0.4270347E-02 (-219.75%)
   displ. norm   :     0.3285310 α      lambda       -0.1014555E-01
   maximum displ.:     0.1236395 α      in ANC's #10, #28, #29, ...

........................................................................
.............................. CYCLE  110 ..............................
........................................................................

 iter      E             dE          RMSdq      gap      omega  full diag
   1    -46.4994480 -0.464994E+02  0.834E-02    8.20       0.0  T
   2    -46.4994595 -0.115164E-04  0.450E-02    8.21       1.0  T
   3    -46.4994611 -0.152132E-05  0.761E-03    8.21       2.7  T
   4    -46.4994612 -0.181123E-06  0.561E-04    8.21      36.4  T
   5    -46.4994612 -0.239823E-08  0.988E-05    8.21     206.7  T
   6    -46.4994612 -0.551523E-10  0.285E-05    8.21     715.5  T
     SCC iter.                  ...        0 min,  0.012 sec
     gradient                   ...        0 min,  0.020 sec
 * total energy  :   -46.2205899 Eh     change       -0.5449636E-02 Eh
   gradient norm :     0.0310163 Eh/α   predicted    -0.5620296E-02 (   3.13%)
   displ. norm   :     0.5426787 α      lambda       -0.4736173E-02
   maximum displ.:     0.2141728 α      in ANC's #12, #18, #10, ...

........................................................................
.............................. CYCLE  111 ..............................
........................................................................

 iter      E             dE          RMSdq      gap      omega  full diag
   1    -46.4859129 -0.464859E+02  0.119E-01    8.28       0.0  T
   2    -46.4859428 -0.299037E-04  0.628E-02    8.26       1.0  T
   3    -46.4859460 -0.318218E-05  0.120E-02    8.25       1.7  T
   4    -46.4859464 -0.383511E-06  0.101E-03    8.26      20.2  T
   5    -46.4859464 -0.766775E-08  0.149E-04    8.26     137.2  T
   6    -46.4859464 -0.162025E-09  0.340E-05    8.26     599.5  T
     SCC iter.                  ...        0 min,  0.009 sec
     gradient                   ...        0 min,  0.004 sec
 * total energy  :   -46.2166240 Eh     change        0.3965893E-02 Eh
   gradient norm :     0.0945434 Eh/α   predicted    -0.3065495E-02 (-177.30%)
   displ. norm   :     0.2982174 α      lambda       -0.1063652E-01
   maximum displ.:     0.0988482 α      in ANC's #18, #15, #28, ...

........................................................................
.............................. CYCLE  112 ..............................
........................................................................

 iter      E             dE          RMSdq      gap      omega  full diag
   1    -46.4948672 -0.464949E+02  0.987E-02    8.24       0.0  T
   2    -46.4948887 -0.215213E-04  0.518E-02    8.26       1.0  T
   3    -46.4948911 -0.236259E-05  0.995E-03    8.26       2.1  T
   4    -46.4948914 -0.270559E-06  0.731E-04    8.26      27.9  T
   5    -46.4948914 -0.376608E-08  0.110E-04    8.26     186.1  T
   6    -46.4948914 -0.796234E-10  0.252E-05    8.26     809.9  T
     SCC iter.                  ...        0 min,  0.012 sec
     gradient                   ...        0 min,  0.004 sec
 * total energy  :   -46.2219675 Eh     change       -0.5343428E-02 Eh
   gradient norm :     0.0134329 Eh/α   predicted    -0.5791235E-02 (   8.38%)
   displ. norm   :     0.4836549 α      lambda       -0.1146391E-02
   maximum displ.:     0.2750148 α      in ANC's #10, #11, #12, ...

........................................................................
.............................. CYCLE  113 ..............................
........................................................................

 iter      E             dE          RMSdq      gap      omega  full diag
   1    -46.4926296 -0.464926E+02  0.276E-02    8.27       0.0  T
   2    -46.4926327 -0.308538E-05  0.141E-02    8.28       1.4  T
   3    -46.4926331 -0.426574E-06  0.361E-03    8.29       5.7  T
   4    -46.4926331 -0.216087E-07  0.339E-04    8.30      60.2  T
   5    -46.4926331 -0.591974E-09  0.382E-05    8.30     534.1  T
   6    -46.4926331 -0.940048E-11  0.888E-06    8.30    2298.1  T
     SCC iter.                  ...        0 min,  0.023 sec
     gradient                   ...        0 min,  0.005 sec
 * total energy  :   -46.2220976 Eh     change       -0.1301434E-03 Eh
   gradient norm :     0.0353786 Eh/α   predicted    -0.7072796E-03 ( 443.46%)
   displ. norm   :     0.4341130 α      lambda       -0.2310172E-02
   maximum displ.:     0.1976821 α      in ANC's #6, #8, #13, ...

........................................................................
.............................. CYCLE  114 ..............................
........................................................................

 iter      E             dE          RMSdq      gap      omega  full diag
   1    -46.5047224 -0.465047E+02  0.449E-02    8.36       0.0  T
   2    -46.5047329 -0.105589E-04  0.213E-02    8.35       1.0  T
   3    -46.5047341 -0.121421E-05  0.583E-03    8.35       3.5  T
   4    -46.5047342 -0.421110E-07  0.425E-04    8.36      48.1  T
   5    -46.5047342 -0.993310E-09  0.620E-05    8.36     329.3  T
   6    -46.5047342 -0.224460E-10  0.176E-05    8.36    1162.0  T
     SCC iter.                  ...        0 min,  0.020 sec
     gradient                   ...        0 min,  0.006 sec
 * total energy  :   -46.2230811 Eh     change       -0.9835339E-03 Eh
   gradient norm :     0.0317478 Eh/α   predicted    -0.1372773E-02 (  39.58%)
   displ. norm   :     0.6786169 α      lambda       -0.3444922E-02
   maximum displ.:     0.3759158 α      in ANC's #10, #12, #7, ...

........................................................................
.............................. CYCLE  115 ..............................
........................................................................

 iter      E             dE          RMSdq      gap      omega  full diag
   1    -46.4980485 -0.464980E+02  0.464E-02    8.40       0.0  T
   2    -46.4980550 -0.655962E-05  0.248E-02    8.40       1.0  T
   3    -46.4980560 -0.906662E-06  0.518E-03    8.39       3.9  T
   4    -46.4980560 -0.761463E-07  0.632E-04    8.39      32.3  T
   5    -46.4980560 -0.169823E-08  0.602E-05    8.39     338.8  T
   6    -46.4980560 -0.289262E-10  0.183E-05    8.39    1118.4  T
     SCC iter.                  ...        0 min,  0.007 sec
     gradient                   ...        0 min,  0.018 sec
 * total energy  :   -46.2235530 Eh     change       -0.4718746E-03 Eh
   gradient norm :     0.0534776 Eh/α   predicted    -0.2515696E-02 ( 433.13%)
   displ. norm   :     0.3684048 α      lambda       -0.3837904E-02
   maximum displ.:     0.1472265 α      in ANC's #10, #13, #11, ...

........................................................................
.............................. CYCLE  116 ..............................
........................................................................

 iter      E             dE          RMSdq      gap      omega  full diag
   1    -46.5007653 -0.465008E+02  0.339E-02    8.42       0.0  T
   2    -46.5007686 -0.332744E-05  0.189E-02    8.42       1.1  T
   3    -46.5007692 -0.586328E-06  0.347E-03    8.42       5.9  T
   4    -46.5007692 -0.437111E-07  0.550E-04    8.43      37.1  T
   5    -46.5007692 -0.130557E-08  0.505E-05    8.43     404.2  T
   6    -46.5007692 -0.179554E-10  0.154E-05    8.43    1323.7  T
     SCC iter.                  ...        0 min,  0.009 sec
     gradient                   ...        0 min,  0.002 sec
 * total energy  :   -46.2251330 Eh     change       -0.1579974E-02 Eh
   gradient norm :     0.0366748 Eh/α   predicted    -0.2179399E-02 (  37.94%)
   displ. norm   :     0.5554798 α      lambda       -0.5235545E-02
   maximum displ.:     0.2535095 α      in ANC's #10, #9, #27, ...

........................................................................
.............................. CYCLE  117 ..............................
........................................................................

 iter      E             dE          RMSdq      gap      omega  full diag
   1    -46.4952360 -0.464952E+02  0.862E-02    8.38       0.0  T
   2    -46.4952577 -0.217191E-04  0.448E-02    8.39       1.0  T
   3    -46.4952600 -0.225643E-05  0.993E-03    8.39       2.1  T
   4    -46.4952602 -0.223393E-06  0.729E-04    8.39      28.0  T
   5    -46.4952602 -0.311829E-08  0.116E-04    8.39     175.4  T
   6    -46.4952602 -0.804761E-10  0.251E-05    8.39     813.0  T
     SCC iter.                  ...        0 min,  0.025 sec
     gradient                   ...        0 min,  0.005 sec
 * total energy  :   -46.2247524 Eh     change        0.3806004E-03 Eh
   gradient norm :     0.0688057 Eh/α   predicted    -0.3425516E-02 (*******%)
   displ. norm   :     0.3920790 α      lambda       -0.5798704E-02
   maximum displ.:     0.2085986 α      in ANC's #10, #12, #7, ...

........................................................................
.............................. CYCLE  118 ..............................
........................................................................

 iter      E             dE          RMSdq      gap      omega  full diag
   1    -46.5004860 -0.465005E+02  0.629E-02    8.49       0.0  T
   2    -46.5005020 -0.159640E-04  0.322E-02    8.50       1.0  T
   3    -46.5005037 -0.173430E-05  0.800E-03    8.51       2.6  T
   4    -46.5005038 -0.129799E-06  0.661E-04    8.51      30.9  T
   5    -46.5005038 -0.201629E-08  0.103E-04    8.51     198.2  T
   6    -46.5005038 -0.712745E-10  0.255E-05    8.51     801.9  T
     SCC iter.                  ...        0 min,  0.020 sec
     gradient                   ...        0 min,  0.004 sec
 * total energy  :   -46.2277951 Eh     change       -0.3042757E-02 Eh
   gradient norm :     0.0275627 Eh/α   predicted    -0.3345060E-02 (   9.94%)
   displ. norm   :     0.5431236 α      lambda       -0.4265097E-02
   maximum displ.:     0.2227454 α      in ANC's #10, #17, #13, ...

........................................................................
.............................. CYCLE  119 ..............................
........................................................................

 iter      E             dE          RMSdq      gap      omega  full diag
   1    -46.4999826 -0.465000E+02  0.587E-02    8.47       0.0  T
   2    -46.4999911 -0.847134E-05  0.332E-02    8.46       1.0  T
   3    -46.4999928 -0.171250E-05  0.563E-03    8.45       3.6  T
   4    -46.4999929 -0.124488E-06  0.781E-04    8.44      26.1  T
   5    -46.4999929 -0.249237E-08  0.859E-05    8.44     237.6  T
   6    -46.4999929 -0.650928E-10  0.273E-05    8.44     746.5  T
     SCC iter.                  ...        0 min,  0.006 sec
     gradient                   ...        0 min,  0.018 sec
 * total energy  :   -46.2257490 Eh     change        0.2046196E-02 Eh
   gradient norm :     0.0781703 Eh/α   predicted    -0.2761620E-02 (-234.96%)
   displ. norm   :     0.3441306 α      lambda       -0.7544514E-02
   maximum displ.:     0.1743182 α      in ANC's #10, #11, #17, ...

........................................................................
.............................. CYCLE  120 ..............................
........................................................................

 iter      E             dE          RMSdq      gap      omega  full diag
   1    -46.4999271 -0.464999E+02  0.480E-02    8.50       0.0  T
   2    -46.4999345 -0.734973E-05  0.261E-02    8.49       1.0  T
   3    -46.4999357 -0.117512E-05  0.557E-03    8.48       3.7  T
   4    -46.4999357 -0.855571E-07  0.570E-04    8.48      35.8  T
   5    -46.4999357 -0.152947E-08  0.775E-05    8.48     263.3  T
   6    -46.4999357 -0.424762E-10  0.219E-05    8.48     932.1  T
     SCC iter.                  ...        0 min,  0.011 sec
     gradient                   ...        0 min,  0.003 sec
 * total energy  :   -46.2296688 Eh     change       -0.3919859E-02 Eh
   gradient norm :     0.0198993 Eh/α   predicted    -0.4218993E-02 (   7.63%)
   displ. norm   :     0.6199535 α      lambda       -0.3533047E-02
   maximum displ.:     0.3132311 α      in ANC's #10, #11, #16, ...
 * RMSD in coord.:     2.0599363 α      energy gain  -0.2094089E-01 Eh

generating ANC from exact Hessian ...
Using Lindh-Hessian (1995)
 Shifting diagonal of input Hessian by   1.023543884851534E-002
 Lowest  eigenvalues of input Hessian
    0.010000    0.010058    0.000000    0.010131    0.000000    0.000000
    0.000000    0.000000    0.000000    0.010295    0.010343    0.010397
    0.010440    0.010469    0.010631    0.010730    0.010791    0.010837
 Highest eigenvalues
    1.374449    1.400173    1.404757    1.407909    1.410097    1.444920
 

........................................................................
.............................. CYCLE  121 ..............................
........................................................................

 iter      E             dE          RMSdq      gap      omega  full diag
   1    -46.4946993 -0.464947E+02  0.618E-02    8.52       0.0  T
   2    -46.4947161 -0.168310E-04  0.325E-02    8.52       1.0  T
   3    -46.4947183 -0.213260E-05  0.816E-03    8.50       2.5  T
   4    -46.4947184 -0.146119E-06  0.826E-04    8.50      24.7  T
   5    -46.4947184 -0.317367E-08  0.104E-04    8.50     195.3  T
   6    -46.4947184 -0.100329E-09  0.267E-05    8.50     764.3  T
     SCC iter.                  ...        0 min,  0.011 sec
     gradient                   ...        0 min,  0.003 sec
 * total energy  :   -46.2271553 Eh     change        0.2513517E-02 Eh
   gradient norm :     0.0857010 Eh/α   predicted     0.0000000E+00 (-100.00%)
   displ. norm   :     0.2769073 α      lambda       -0.7531457E-02
   maximum displ.:     0.1693020 α      in ANC's #15, #16, #5, ...

........................................................................
.............................. CYCLE  122 ..............................
........................................................................

 iter      E             dE          RMSdq      gap      omega  full diag
   1    -46.5024475 -0.465024E+02  0.373E-02    8.46       0.0  T
   2    -46.5024545 -0.699938E-05  0.184E-02    8.46       1.1  T
   3    -46.5024555 -0.108800E-05  0.450E-03    8.46       4.5  T
   4    -46.5024556 -0.338523E-07  0.671E-04    8.46      30.4  T
   5    -46.5024556 -0.197094E-08  0.468E-05    8.46     436.1  T
   6    -46.5024556 -0.250537E-10  0.142E-05    8.46    1437.5  T
     SCC iter.                  ...        0 min,  0.012 sec
     gradient                   ...        0 min,  0.002 sec
 * total energy  :   -46.2323091 Eh     change       -0.5153767E-02 Eh
   gradient norm :     0.0220162 Eh/α   predicted    -0.4054969E-02 ( -21.32%)
   displ. norm   :     0.4473070 α      lambda       -0.3041376E-02
   maximum displ.:     0.3179845 α      in ANC's #15, #16, #13, ...

........................................................................
.............................. CYCLE  123 ..............................
........................................................................

 iter      E             dE          RMSdq      gap      omega  full diag
   1    -46.5064379 -0.465064E+02  0.269E-02    8.44       0.0  T
   2    -46.5064436 -0.572773E-05  0.127E-02    8.44       1.6  T
   3    -46.5064443 -0.694796E-06  0.404E-03    8.44       5.1  T
   4    -46.5064444 -0.250952E-07  0.343E-04    8.44      59.6  T
   5    -46.5064444 -0.497025E-09  0.551E-05    8.44     370.5  T
   6    -46.5064444 -0.284928E-10  0.108E-05    8.44    1893.9  T
     SCC iter.                  ...        0 min,  0.019 sec
     gradient                   ...        0 min,  0.004 sec
 * total energy  :   -46.2345769 Eh     change       -0.2267821E-02 Eh
   gradient norm :     0.0193535 Eh/α   predicted    -0.1824954E-02 ( -19.53%)
   displ. norm   :     0.6194940 α      lambda       -0.2803272E-02
   maximum displ.:     0.4042888 α      in ANC's #15, #16, #13, ...

........................................................................
.............................. CYCLE  124 ..............................
........................................................................

 iter      E             dE          RMSdq      gap      omega  full diag
   1    -46.5066167 -0.465066E+02  0.244E-02    8.43       0.0  T
   2    -46.5066228 -0.616068E-05  0.112E-02    8.44       1.8  T
   3    -46.5066236 -0.755791E-06  0.390E-03    8.44       5.2  T
   4    -46.5066236 -0.303933E-07  0.283E-04    8.44      72.1  T
   5    -46.5066236 -0.428969E-09  0.539E-05    8.44     378.7  T
   6    -46.5066236 -0.200657E-10  0.111E-05    8.44    1839.7  T
     SCC iter.                  ...        0 min,  0.006 sec
     gradient                   ...        0 min,  0.016 sec
 * total energy  :   -46.2372583 Eh     change       -0.2681456E-02 Eh
   gradient norm :     0.0315413 Eh/α   predicted    -0.1939556E-02 ( -27.67%)
   displ. norm   :     0.8327542 α      lambda       -0.4131501E-02
   maximum displ.:     0.4977686 α      in ANC's #15, #16, #13, ...

........................................................................
.............................. CYCLE  125 ..............................
........................................................................

 iter      E             dE          RMSdq      gap      omega  full diag
   1    -46.5045173 -0.465045E+02  0.394E-02    8.46       0.0  T
   2    -46.5045338 -0.164680E-04  0.174E-02    8.46       1.2  T
   3    -46.5045361 -0.225870E-05  0.577E-03    8.46       3.5  T
   4    -46.5045361 -0.763586E-07  0.692E-04    8.46      29.5  T
   5    -46.5045362 -0.153894E-08  0.106E-04    8.46     192.7  T
   6    -46.5045362 -0.578879E-10  0.215E-05    8.46     947.4  T
     SCC iter.                  ...        0 min,  0.013 sec
     gradient                   ...        0 min,  0.004 sec
 * total energy  :   -46.2406036 Eh     change       -0.3345249E-02 Eh
   gradient norm :     0.0255203 Eh/α   predicted    -0.3498326E-02 (   4.58%)
   displ. norm   :     0.6654653 α      lambda       -0.3002570E-02
   maximum displ.:     0.3685298 α      in ANC's #15, #16, #5, ...

........................................................................
.............................. CYCLE  126 ..............................
........................................................................

 iter      E             dE          RMSdq      gap      omega  full diag
   1    -46.5029198 -0.465029E+02  0.425E-02    8.47       0.0  T
   2    -46.5029279 -0.805438E-05  0.245E-02    8.47       1.0  T
   3    -46.5029294 -0.153640E-05  0.546E-03    8.47       3.7  T
   4    -46.5029295 -0.100562E-06  0.762E-04    8.47      26.8  T
   5    -46.5029295 -0.235843E-08  0.767E-05    8.47     266.0  T
   6    -46.5029295 -0.565024E-10  0.239E-05    8.47     855.1  T
     SCC iter.                  ...        0 min,  0.018 sec
     gradient                   ...        0 min,  0.005 sec
 * total energy  :   -46.2420828 Eh     change       -0.1479212E-02 Eh
   gradient norm :     0.0294950 Eh/α   predicted    -0.2166123E-02 (  46.44%)
   displ. norm   :     0.5700654 α      lambda       -0.4544314E-02
   maximum displ.:     0.3860261 α      in ANC's #7, #9, #15, ...

........................................................................
.............................. CYCLE  127 ..............................
........................................................................

 iter      E             dE          RMSdq      gap      omega  full diag
   1    -46.5186461 -0.465186E+02  0.723E-02    8.49       0.0  T
   2    -46.5186553 -0.923503E-05  0.386E-02    8.49       1.0  T
   3    -46.5186566 -0.129665E-05  0.659E-03    8.48       3.1  T
   4    -46.5186568 -0.134432E-06  0.386E-04    8.48      52.9  T
   5    -46.5186568 -0.119753E-08  0.883E-05    8.48     231.2  T
   6    -46.5186568 -0.509246E-10  0.284E-05    8.48     718.4  T
     SCC iter.                  ...        0 min,  0.026 sec
     gradient                   ...        0 min,  0.004 sec
 * total energy  :   -46.2436542 Eh     change       -0.1571442E-02 Eh
   gradient norm :     0.0384831 Eh/α   predicted    -0.3010555E-02 (  91.58%)
   displ. norm   :     0.4839674 α      lambda       -0.3936465E-02
   maximum displ.:     0.2421668 α      in ANC's #9, #7, #8, ...

........................................................................
.............................. CYCLE  128 ..............................
........................................................................

 iter      E             dE          RMSdq      gap      omega  full diag
   1    -46.5130897 -0.465131E+02  0.538E-02    8.39       0.0  T
   2    -46.5131111 -0.214057E-04  0.266E-02    8.38       1.0  T
   3    -46.5131143 -0.315303E-05  0.799E-03    8.37       2.6  T
   4    -46.5131143 -0.891819E-07  0.109E-03    8.37      18.7  T
   5    -46.5131143 -0.415915E-08  0.107E-04    8.37     191.2  T
   6    -46.5131143 -0.101032E-09  0.267E-05    8.37     763.9  T
     SCC iter.                  ...        0 min,  0.037 sec
     gradient                   ...        0 min,  0.006 sec
 * total energy  :   -46.2449768 Eh     change       -0.1322579E-02 Eh
   gradient norm :     0.0344871 Eh/α   predicted    -0.2429243E-02 (  83.67%)
   displ. norm   :     0.3921356 α      lambda       -0.3260422E-02
   maximum displ.:     0.2040084 α      in ANC's #7, #8, #6, ...

........................................................................
.............................. CYCLE  129 ..............................
........................................................................

 iter      E             dE          RMSdq      gap      omega  full diag
   1    -46.5163197 -0.465163E+02  0.507E-02    8.44       0.0  T
   2    -46.5163273 -0.767615E-05  0.260E-02    8.43       1.0  T
   3    -46.5163283 -0.975787E-06  0.534E-03    8.42       3.8  T
   4    -46.5163284 -0.688220E-07  0.668E-04    8.42      30.6  T
   5    -46.5163284 -0.235583E-08  0.630E-05    8.42     324.1  T
   6    -46.5163284 -0.333245E-10  0.148E-05    8.42    1383.6  T
     SCC iter.                  ...        0 min,  0.012 sec
     gradient                   ...        0 min,  0.019 sec
 * total energy  :   -46.2460842 Eh     change       -0.1107404E-02 Eh
   gradient norm :     0.0245598 Eh/α   predicted    -0.1880890E-02 (  69.85%)
   displ. norm   :     0.3609322 α      lambda       -0.1297496E-02
   maximum displ.:     0.1525196 α      in ANC's #7, #15, #13, ...

........................................................................
.............................. CYCLE  130 ..............................
........................................................................

 iter      E             dE          RMSdq      gap      omega  full diag
   1    -46.5115189 -0.465115E+02  0.270E-02    8.45       0.0  T
   2    -46.5115245 -0.552602E-05  0.126E-02    8.44       1.6  T
   3    -46.5115252 -0.765667E-06  0.378E-03    8.44       5.4  T
   4    -46.5115252 -0.214413E-07  0.429E-04    8.43      47.6  T
   5    -46.5115252 -0.850754E-09  0.391E-05    8.43     521.7  T
   6    -46.5115252 -0.883205E-11  0.121E-05    8.43    1686.5  T
     SCC iter.                  ...        0 min,  0.009 sec
     gradient                   ...        0 min,  0.002 sec
 * total energy  :   -46.2466682 Eh     change       -0.5839518E-03 Eh
   gradient norm :     0.0140163 Eh/α   predicted    -0.7332622E-03 (  25.57%)
   displ. norm   :     0.3112428 α      lambda       -0.1092265E-02
   maximum displ.:     0.1459110 α      in ANC's #8, #15, #12, ...

........................................................................
.............................. CYCLE  131 ..............................
........................................................................

 iter      E             dE          RMSdq      gap      omega  full diag
   1    -46.5158396 -0.465158E+02  0.297E-02    8.43       0.0  T
   2    -46.5158486 -0.896608E-05  0.123E-02    8.43       1.7  T
   3    -46.5158498 -0.124894E-05  0.364E-03    8.43       5.6  T
   4    -46.5158499 -0.265029E-07  0.508E-04    8.43      40.2  T
   5    -46.5158499 -0.689418E-09  0.415E-05    8.43     491.3  T
   6    -46.5158499 -0.940048E-11  0.110E-05    8.43    1863.9  T
     SCC iter.                  ...        0 min,  0.019 sec
     gradient                   ...        0 min,  0.002 sec
 * total energy  :   -46.2469800 Eh     change       -0.3118323E-03 Eh
   gradient norm :     0.0224308 Eh/α   predicted    -0.5990382E-03 (  92.10%)
   displ. norm   :     0.2996856 α      lambda       -0.9632635E-03
   maximum displ.:     0.1565277 α      in ANC's #7, #5, #10, ...

........................................................................
.............................. CYCLE  132 ..............................
........................................................................

 iter      E             dE          RMSdq      gap      omega  full diag
   1    -46.5124663 -0.465125E+02  0.296E-02    8.39       0.0  T
   2    -46.5124703 -0.395804E-05  0.145E-02    8.38       1.4  T
   3    -46.5124707 -0.485590E-06  0.369E-03    8.37       5.5  T
   4    -46.5124708 -0.223254E-07  0.299E-04    8.37      68.3  T
   5    -46.5124708 -0.513396E-09  0.448E-05    8.37     456.1  T
   6    -46.5124708 -0.131379E-10  0.868E-06    8.37    2351.9  T
     SCC iter.                  ...        0 min,  0.023 sec
     gradient                   ...        0 min,  0.004 sec
 * total energy  :   -46.2474328 Eh     change       -0.4527661E-03 Eh
   gradient norm :     0.0150764 Eh/α   predicted    -0.5248911E-03 (  15.93%)
   displ. norm   :     0.3758398 α      lambda       -0.8334581E-03
   maximum displ.:     0.2341461 α      in ANC's #7, #10, #5, ...

........................................................................
.............................. CYCLE  133 ..............................
........................................................................

 iter      E             dE          RMSdq      gap      omega  full diag
   1    -46.5130211 -0.465130E+02  0.347E-02    8.40       0.0  T
   2    -46.5130248 -0.364206E-05  0.182E-02    8.39       1.1  T
   3    -46.5130253 -0.574126E-06  0.376E-03    8.38       5.4  T
   4    -46.5130254 -0.348082E-07  0.412E-04    8.38      49.6  T
   5    -46.5130254 -0.938890E-09  0.473E-05    8.38     431.8  T
   6    -46.5130254 -0.137703E-10  0.153E-05    8.38    1330.1  T
     SCC iter.                  ...        0 min,  0.011 sec
     gradient                   ...        0 min,  0.017 sec
 * total energy  :   -46.2475478 Eh     change       -0.1150365E-03 Eh
   gradient norm :     0.0221218 Eh/α   predicted    -0.4755966E-03 ( 313.43%)
   displ. norm   :     0.2083452 α      lambda       -0.8646097E-03
   maximum displ.:     0.0695191 α      in ANC's #12, #3, #10, ...

........................................................................
.............................. CYCLE  134 ..............................
........................................................................

 iter      E             dE          RMSdq      gap      omega  full diag
   1    -46.5120997 -0.465121E+02  0.190E-02    8.37       0.0  T
   2    -46.5121010 -0.124814E-05  0.102E-02    8.37       2.0  T
   3    -46.5121012 -0.203574E-06  0.225E-03    8.37       9.1  T
   4    -46.5121012 -0.112810E-07  0.296E-04    8.37      68.9  T
   5    -46.5121012 -0.418900E-09  0.317E-05    8.37     643.0  T
   6    -46.5121012 -0.792255E-11  0.563E-06    8.37    3628.4  T
     SCC iter.                  ...        0 min,  0.011 sec
     gradient                   ...        0 min,  0.003 sec
 * total energy  :   -46.2479556 Eh     change       -0.4078319E-03 Eh
   gradient norm :     0.0115099 Eh/α   predicted    -0.4510715E-03 (  10.60%)
   displ. norm   :     0.1945750 α      lambda       -0.3598550E-03
   maximum displ.:     0.0970837 α      in ANC's #3, #5, #14, ...

........................................................................
.............................. CYCLE  135 ..............................
........................................................................

 iter      E             dE          RMSdq      gap      omega  full diag
   1    -46.5129873 -0.465130E+02  0.127E-02    8.37       0.0  T
   2    -46.5129880 -0.721240E-06  0.625E-03    8.37       3.3  T
   3    -46.5129881 -0.110070E-06  0.147E-03    8.37      13.9  T
   4    -46.5129881 -0.384618E-08  0.177E-04    8.38     115.6  T
   5    -46.5129881 -0.142713E-09  0.193E-05    8.38    1057.1  T
     SCC iter.                  ...        0 min,  0.022 sec
     gradient                   ...        0 min,  0.004 sec
 * total energy  :   -46.2481762 Eh     change       -0.2205393E-03 Eh
   gradient norm :     0.0123211 Eh/α   predicted    -0.1867409E-03 ( -15.33%)
   displ. norm   :     0.2980613 α      lambda       -0.4298358E-03
   maximum displ.:     0.1549183 α      in ANC's #3, #7, #5, ...

........................................................................
.............................. CYCLE  136 ..............................
........................................................................

 iter      E             dE          RMSdq      gap      omega  full diag
   1    -46.5132942 -0.465133E+02  0.199E-02    8.37       0.0  T
   2    -46.5132958 -0.167866E-05  0.994E-03    8.37       2.1  T
   3    -46.5132960 -0.172661E-06  0.250E-03    8.37       8.2  T
   4    -46.5132960 -0.118601E-07  0.185E-04    8.37     110.4  T
   5    -46.5132960 -0.204601E-09  0.288E-05    8.37     708.0  T
     SCC iter.                  ...        0 min,  0.004 sec
     gradient                   ...        0 min,  0.004 sec
 * total energy  :   -46.2483686 Eh     change       -0.1924279E-03 Eh
   gradient norm :     0.0105024 Eh/α   predicted    -0.2340152E-03 (  21.61%)
   displ. norm   :     0.3925896 α      lambda       -0.5817064E-03
   maximum displ.:     0.1940134 α      in ANC's #3, #5, #14, ...

........................................................................
.............................. CYCLE  137 ..............................
........................................................................

 iter      E             dE          RMSdq      gap      omega  full diag
   1    -46.5089223 -0.465089E+02  0.284E-02    8.34       0.0  T
   2    -46.5089253 -0.295590E-05  0.142E-02    8.35       1.4  T
   3    -46.5089256 -0.296289E-06  0.347E-03    8.34       5.9  T
   4    -46.5089256 -0.223232E-07  0.215E-04    8.34      95.1  T
   5    -46.5089256 -0.282888E-09  0.291E-05    8.34     701.2  T
   6    -46.5089256 -0.508749E-11  0.729E-06    8.34    2800.2  T
     SCC iter.                  ...        0 min,  0.011 sec
     gradient                   ...        0 min,  0.003 sec
 * total energy  :   -46.2485354 Eh     change       -0.1667433E-03 Eh
   gradient norm :     0.0245715 Eh/α   predicted    -0.3356844E-03 ( 101.32%)
   displ. norm   :     0.1605793 α      lambda       -0.7906961E-03
   maximum displ.:     0.0799793 α      in ANC's #8, #1, #3, ...

........................................................................
.............................. CYCLE  138 ..............................
........................................................................

 iter      E             dE          RMSdq      gap      omega  full diag
   1    -46.5168771 -0.465169E+02  0.305E-02    8.38       0.0  T
   2    -46.5168787 -0.160609E-05  0.164E-02    8.38       1.2  T
   3    -46.5168789 -0.200531E-06  0.285E-03    8.38       7.2  T
   4    -46.5168790 -0.246197E-07  0.183E-04    8.38     111.8  T
   5    -46.5168790 -0.309008E-09  0.303E-05    8.38     673.7  T
     SCC iter.                  ...        0 min,  0.023 sec
     gradient                   ...        0 min,  0.006 sec
 * total energy  :   -46.2487620 Eh     change       -0.2266844E-03 Eh
   gradient norm :     0.0164432 Eh/α   predicted    -0.4055433E-03 (  78.90%)
   displ. norm   :     0.2097623 α      lambda       -0.5616733E-03
   maximum displ.:     0.1019011 α      in ANC's #7, #1, #3, ...

........................................................................
.............................. CYCLE  139 ..............................
........................................................................

 iter      E             dE          RMSdq      gap      omega  full diag
   1    -46.5155607 -0.465156E+02  0.183E-02    8.39       0.0  T
   2    -46.5155613 -0.582975E-06  0.101E-02    8.39       2.0  T
   3    -46.5155614 -0.976219E-07  0.165E-03    8.39      12.4  T
   4    -46.5155614 -0.904706E-08  0.176E-04    8.39     116.1  T
   5    -46.5155614 -0.196039E-09  0.193E-05    8.39    1055.8  T
     SCC iter.                  ...        0 min,  0.024 sec
     gradient                   ...        0 min,  0.007 sec
 * total energy  :   -46.2490131 Eh     change       -0.2510607E-03 Eh
   gradient norm :     0.0124773 Eh/α   predicted    -0.2931945E-03 (  16.78%)
   displ. norm   :     0.3177714 α      lambda       -0.4507714E-03
   maximum displ.:     0.1739389 α      in ANC's #3, #5, #1, ...

........................................................................
.............................. CYCLE  140 ..............................
........................................................................

 iter      E             dE          RMSdq      gap      omega  full diag
   1    -46.5104429 -0.465104E+02  0.199E-02    8.37       0.0  T
   2    -46.5104437 -0.758714E-06  0.107E-02    8.37       1.9  T
   3    -46.5104438 -0.879844E-07  0.198E-03    8.37      10.3  T
   4    -46.5104438 -0.110042E-07  0.134E-04    8.37     152.8  T
   5    -46.5104438 -0.144155E-09  0.198E-05    8.37    1029.0  T
     SCC iter.                  ...        0 min,  0.021 sec
     gradient                   ...        0 min,  0.002 sec
 * total energy  :   -46.2492892 Eh     change       -0.2760710E-03 Eh
   gradient norm :     0.0165370 Eh/α   predicted    -0.2481465E-03 ( -10.11%)
   displ. norm   :     0.2475144 α      lambda       -0.4610374E-03
   maximum displ.:     0.1469200 α      in ANC's #3, #1, #14, ...

........................................................................
.............................. CYCLE  141 ..............................
........................................................................

 iter      E             dE          RMSdq      gap      omega  full diag
   1    -46.5109718 -0.465110E+02  0.111E-02    8.36       0.0  T
   2    -46.5109727 -0.846476E-06  0.529E-03    8.36       3.9  T
   3    -46.5109728 -0.108066E-06  0.161E-03    8.35      12.6  T
   4    -46.5109728 -0.346676E-08  0.178E-04    8.35     114.4  T
   5    -46.5109728 -0.170509E-09  0.184E-05    8.35    1110.2  T
     SCC iter.                  ...        0 min,  0.008 sec
     gradient                   ...        0 min,  0.004 sec
 * total energy  :   -46.2495910 Eh     change       -0.3017862E-03 Eh
   gradient norm :     0.0188770 Eh/α   predicted    -0.2446436E-03 ( -18.93%)
   displ. norm   :     0.4045744 α      lambda       -0.8908003E-03
   maximum displ.:     0.2664735 α      in ANC's #1, #3, #14, ...

........................................................................
.............................. CYCLE  142 ..............................
........................................................................

 iter      E             dE          RMSdq      gap      omega  full diag
   1    -46.5103731 -0.465104E+02  0.247E-02    8.35       0.0  T
   2    -46.5103772 -0.407859E-05  0.115E-02    8.35       1.8  T
   3    -46.5103776 -0.406024E-06  0.348E-03    8.35       5.9  T
   4    -46.5103776 -0.141006E-07  0.215E-04    8.35      94.8  T
   5    -46.5103776 -0.272138E-09  0.347E-05    8.35     588.9  T
   6    -46.5103776 -0.868283E-11  0.746E-06    8.35    2735.1  T
     SCC iter.                  ...        0 min,  0.011 sec
     gradient                   ...        0 min,  0.003 sec
 * total energy  :   -46.2500660 Eh     change       -0.4750596E-03 Eh
   gradient norm :     0.0220786 Eh/α   predicted    -0.5183038E-03 (   9.10%)
   displ. norm   :     0.4395640 α      lambda       -0.1081095E-02
   maximum displ.:     0.2873632 α      in ANC's #1, #3, #24, ...

........................................................................
.............................. CYCLE  143 ..............................
........................................................................

 iter      E             dE          RMSdq      gap      omega  full diag
   1    -46.5114534 -0.465115E+02  0.215E-02    8.38       0.0  T
   2    -46.5114560 -0.257615E-05  0.106E-02    8.37       1.9  T
   3    -46.5114563 -0.310072E-06  0.303E-03    8.37       6.7  T
   4    -46.5114563 -0.127951E-07  0.260E-04    8.37      78.5  T
   5    -46.5114563 -0.342553E-09  0.274E-05    8.37     744.7  T
   6    -46.5114563 -0.579803E-11  0.704E-06    8.37    2900.6  T
     SCC iter.                  ...        0 min,  0.031 sec
     gradient                   ...        0 min,  0.004 sec
 * total energy  :   -46.2507671 Eh     change       -0.7010649E-03 Eh
   gradient norm :     0.0173371 Eh/α   predicted    -0.6449948E-03 (  -8.00%)
   displ. norm   :     0.4047570 α      lambda       -0.9357234E-03
   maximum displ.:     0.2550963 α      in ANC's #1, #3, #7, ...

........................................................................
.............................. CYCLE  144 ..............................
........................................................................

 iter      E             dE          RMSdq      gap      omega  full diag
   1    -46.5169867 -0.465170E+02  0.250E-02    8.39       0.0  T
   2    -46.5169886 -0.186863E-05  0.131E-02    8.39       1.6  T
   3    -46.5169889 -0.270793E-06  0.272E-03    8.38       7.5  T
   4    -46.5169889 -0.186345E-07  0.287E-04    8.38      71.2  T
   5    -46.5169889 -0.464532E-09  0.388E-05    8.38     526.8  T
   6    -46.5169889 -0.108358E-10  0.856E-06    8.38    2384.5  T
     SCC iter.                  ...        0 min,  0.023 sec
     gradient                   ...        0 min,  0.005 sec
 * total energy  :   -46.2511024 Eh     change       -0.3353080E-03 Eh
   gradient norm :     0.0230517 Eh/α   predicted    -0.5445152E-03 (  62.39%)
   displ. norm   :     0.4344692 α      lambda       -0.1125117E-02
   maximum displ.:     0.2749151 α      in ANC's #1, #3, #4, ...

........................................................................
.............................. CYCLE  145 ..............................
........................................................................

 iter      E             dE          RMSdq      gap      omega  full diag
   1    -46.5146360 -0.465146E+02  0.389E-02    8.41       0.0  T
   2    -46.5146409 -0.484210E-05  0.201E-02    8.42       1.0  T
   3    -46.5146413 -0.474640E-06  0.459E-03    8.42       4.5  T
   4    -46.5146414 -0.486915E-07  0.262E-04    8.42      77.9  T
   5    -46.5146414 -0.535422E-09  0.484E-05    8.42     421.7  T
   6    -46.5146414 -0.143743E-10  0.119E-05    8.42    1709.6  T
     SCC iter.                  ...        0 min,  0.019 sec
     gradient                   ...        0 min,  0.003 sec
 * total energy  :   -46.2515340 Eh     change       -0.4316204E-03 Eh
   gradient norm :     0.0272931 Eh/α   predicted    -0.6687495E-03 (  54.94%)
   displ. norm   :     0.3736609 α      lambda       -0.1976589E-02
   maximum displ.:     0.1533914 α      in ANC's #5, #10, #4, ...

........................................................................
.............................. CYCLE  146 ..............................
........................................................................

 iter      E             dE          RMSdq      gap      omega  full diag
   1    -46.5286841 -0.465287E+02  0.597E-02    8.47       0.0  T
   2    -46.5286925 -0.846667E-05  0.318E-02    8.47       1.0  T
   3    -46.5286936 -0.106593E-05  0.629E-03    8.47       3.2  T
   4    -46.5286937 -0.106144E-06  0.559E-04    8.47      36.5  T
   5    -46.5286937 -0.160914E-08  0.724E-05    8.47     282.0  T
   6    -46.5286937 -0.349871E-10  0.179E-05    8.47    1141.7  T
     SCC iter.                  ...        0 min,  0.010 sec
     gradient                   ...        0 min,  0.019 sec
 * total energy  :   -46.2489902 Eh     change        0.2543823E-02 Eh
   gradient norm :     0.0773314 Eh/α   predicted    -0.1126283E-02 (-144.28%)
   displ. norm   :     0.2233674 α      lambda       -0.6499869E-02
   maximum displ.:     0.0684385 α      in ANC's #25, #24, #1, ...

........................................................................
.............................. CYCLE  147 ..............................
........................................................................

 iter      E             dE          RMSdq      gap      omega  full diag
   1    -46.5115985 -0.465116E+02  0.700E-02    8.38       0.0  T
   2    -46.5116106 -0.120733E-04  0.367E-02    8.39       1.0  T
   3    -46.5116120 -0.144682E-05  0.733E-03    8.39       2.8  T
   4    -46.5116122 -0.137909E-06  0.541E-04    8.39      37.7  T
   5    -46.5116122 -0.178698E-08  0.772E-05    8.39     264.5  T
   6    -46.5116122 -0.359535E-10  0.224E-05    8.39     913.1  T
     SCC iter.                  ...        0 min,  0.013 sec
     gradient                   ...        0 min,  0.003 sec
 * total energy  :   -46.2519891 Eh     change       -0.2998892E-02 Eh
   gradient norm :     0.0199630 Eh/α   predicted    -0.3412085E-02 (  13.78%)
   displ. norm   :     0.2529735 α      lambda       -0.1417783E-02
   maximum displ.:     0.1074974 α      in ANC's #13, #1, #12, ...

........................................................................
.............................. CYCLE  148 ..............................
........................................................................

 iter      E             dE          RMSdq      gap      omega  full diag
   1    -46.5196446 -0.465196E+02  0.432E-02    8.42       0.0  T
   2    -46.5196489 -0.433516E-05  0.230E-02    8.41       1.0  T
   3    -46.5196495 -0.584251E-06  0.429E-03    8.40       4.8  T
   4    -46.5196495 -0.566949E-07  0.358E-04    8.40      57.0  T
   5    -46.5196495 -0.970196E-09  0.734E-05    8.40     278.3  T
   6    -46.5196495 -0.283080E-10  0.189E-05    8.40    1080.6  T
     SCC iter.                  ...        0 min,  0.011 sec
     gradient                   ...        0 min,  0.005 sec
 * total energy  :   -46.2517521 Eh     change        0.2369451E-03 Eh
   gradient norm :     0.0331065 Eh/α   predicted    -0.7542586E-03 (-418.33%)
   displ. norm   :     0.2386355 α      lambda       -0.1414617E-02
   maximum displ.:     0.1266969 α      in ANC's #1, #3, #4, ...

........................................................................
.............................. CYCLE  149 ..............................
........................................................................

 iter      E             dE          RMSdq      gap      omega  full diag
   1    -46.5157590 -0.465158E+02  0.284E-02    8.38       0.0  T
   2    -46.5157601 -0.109366E-05  0.159E-02    8.39       1.3  T
   3    -46.5157603 -0.208623E-06  0.216E-03    8.40       9.5  T
   4    -46.5157603 -0.187019E-07  0.231E-04    8.40      88.4  T
   5    -46.5157603 -0.423171E-09  0.429E-05    8.40     475.5  T
   6    -46.5157603 -0.105871E-10  0.103E-05    8.40    1979.4  T
     SCC iter.                  ...        0 min,  0.020 sec
     gradient                   ...        0 min,  0.002 sec
 * total energy  :   -46.2525289 Eh     change       -0.7767297E-03 Eh
   gradient norm :     0.0118029 Eh/α   predicted    -0.7475877E-03 (  -3.75%)
   displ. norm   :     0.3057509 α      lambda       -0.4963798E-03
   maximum displ.:     0.1802990 α      in ANC's #1, #3, #4, ...

........................................................................
.............................. CYCLE  150 ..............................
........................................................................

 iter      E             dE          RMSdq      gap      omega  full diag
   1    -46.5116610 -0.465117E+02  0.255E-02    8.39       0.0  T
   2    -46.5116627 -0.169577E-05  0.136E-02    8.40       1.5  T
   3    -46.5116629 -0.220194E-06  0.276E-03    8.40       7.4  T
   4    -46.5116629 -0.209191E-07  0.187E-04    8.40     109.2  T
   5    -46.5116629 -0.212317E-09  0.350E-05    8.40     583.0  T
     SCC iter.                  ...        0 min,  0.023 sec
     gradient                   ...        0 min,  0.003 sec
 * total energy  :   -46.2526173 Eh     change       -0.8842222E-04 Eh
   gradient norm :     0.0197248 Eh/α   predicted    -0.2713966E-03 ( 206.93%)
   displ. norm   :     0.1835136 α      lambda       -0.4899189E-03
   maximum displ.:     0.0964574 α      in ANC's #1, #4, #3, ...
 * RMSD in coord.:     1.1800182 α      energy gain  -0.2294847E-01 Eh

generating ANC from exact Hessian ...
Using Lindh-Hessian (1995)
 Shifting diagonal of input Hessian by   1.007416392902965E-002
 Lowest  eigenvalues of input Hessian
    0.000000    0.000000    0.000000    0.010000    0.000000    0.000000
    0.000000    0.010187    0.010299    0.010516    0.010697    0.010831
    0.011126    0.011444    0.011519    0.011981    0.012186    0.012582
 Highest eigenvalues
    1.379980    1.381040    1.388078    1.394790    1.408365    1.410708
 

........................................................................
.............................. CYCLE  151 ..............................
........................................................................

 iter      E             dE          RMSdq      gap      omega  full diag
   1    -46.5152494 -0.465152E+02  0.141E-02    8.40       0.0  T
   2    -46.5152499 -0.516397E-06  0.738E-03    8.40       2.8  T
   3    -46.5152500 -0.715537E-07  0.148E-03    8.40      13.8  T
   4    -46.5152500 -0.537487E-08  0.133E-04    8.40     153.6  T
   5    -46.5152500 -0.105494E-09  0.162E-05    8.40    1257.7  T
     SCC iter.                  ...        0 min,  0.009 sec
     gradient                   ...        0 min,  0.003 sec
 * total energy  :   -46.2529418 Eh     change       -0.3244792E-03 Eh
   gradient norm :     0.0084736 Eh/α   predicted     0.0000000E+00 (-100.00%)
   displ. norm   :     0.1399441 α      lambda       -0.3655654E-03
   maximum displ.:     0.0601116 α      in ANC's #9, #4, #22, ...

........................................................................
.............................. CYCLE  152 ..............................
........................................................................

 iter      E             dE          RMSdq      gap      omega  full diag
   1    -46.5164756 -0.465165E+02  0.812E-03    8.39       0.0  T
   2    -46.5164761 -0.492585E-06  0.381E-03    8.40       5.4  T
   3    -46.5164762 -0.660348E-07  0.116E-03    8.40      17.6  T
   4    -46.5164762 -0.215464E-08  0.124E-04    8.40     164.6  T
   5    -46.5164762 -0.753175E-10  0.175E-05    8.40    1168.8  T
     SCC iter.                  ...        0 min,  0.018 sec
     gradient                   ...        0 min,  0.002 sec
 * total energy  :   -46.2532254 Eh     change       -0.2836469E-03 Eh
   gradient norm :     0.0045504 Eh/α   predicted    -0.1863626E-03 ( -34.30%)
   displ. norm   :     0.2490069 α      lambda       -0.3817101E-03
   maximum displ.:     0.1083377 α      in ANC's #4, #9, #11, ...

........................................................................
.............................. CYCLE  153 ..............................
........................................................................

 iter      E             dE          RMSdq      gap      omega  full diag
   1    -46.5160034 -0.465160E+02  0.140E-02    8.39       0.0  T
   2    -46.5160046 -0.126664E-05  0.688E-03    8.40       3.0  T
   3    -46.5160048 -0.170352E-06  0.209E-03    8.41       9.8  T
   4    -46.5160048 -0.649377E-08  0.166E-04    8.41     122.7  T
   5    -46.5160048 -0.189644E-09  0.273E-05    8.41     748.1  T
     SCC iter.                  ...        0 min,  0.008 sec
     gradient                   ...        0 min,  0.018 sec
 * total energy  :   -46.2534214 Eh     change       -0.1959847E-03 Eh
   gradient norm :     0.0121875 Eh/α   predicted    -0.2026993E-03 (   3.43%)
   displ. norm   :     0.1048622 α      lambda       -0.2121071E-03
   maximum displ.:     0.0521278 α      in ANC's #4, #18, #2, ...

........................................................................
.............................. CYCLE  154 ..............................
........................................................................

 iter      E             dE          RMSdq      gap      omega  full diag
   1    -46.5173112 -0.465173E+02  0.104E-02    8.40       0.0  T
   2    -46.5173117 -0.518509E-06  0.513E-03    8.41       4.0  T
   3    -46.5173118 -0.634687E-07  0.135E-03    8.41      15.1  T
   4    -46.5173118 -0.279337E-08  0.136E-04    8.41     149.9  T
   5    -46.5173118 -0.893579E-10  0.182E-05    8.41    1119.3  T
     SCC iter.                  ...        0 min,  0.009 sec
     gradient                   ...        0 min,  0.002 sec
 * total energy  :   -46.2535585 Eh     change       -0.1371135E-03 Eh
   gradient norm :     0.0057106 Eh/α   predicted    -0.1072273E-03 ( -21.80%)
   displ. norm   :     0.2018005 α      lambda       -0.1790094E-03
   maximum displ.:     0.1118324 α      in ANC's #4, #18, #12, ...

........................................................................
.............................. CYCLE  155 ..............................
........................................................................

 iter      E             dE          RMSdq      gap      omega  full diag
   1    -46.5168794 -0.465169E+02  0.690E-03    8.39       0.0  T
   2    -46.5168799 -0.499177E-06  0.315E-03    8.40       6.5  T
   3    -46.5168800 -0.644210E-07  0.113E-03    8.40      18.1  T
   4    -46.5168800 -0.173359E-08  0.107E-04    8.40     191.2  T
   5    -46.5168800 -0.503633E-10  0.149E-05    8.40    1366.8  T
     SCC iter.                  ...        0 min,  0.020 sec
     gradient                   ...        0 min,  0.004 sec
 * total energy  :   -46.2536981 Eh     change       -0.1395772E-03 Eh
   gradient norm :     0.0059794 Eh/α   predicted    -0.9314990E-04 ( -33.26%)
   displ. norm   :     0.3138079 α      lambda       -0.2419331E-03
   maximum displ.:     0.1871092 α      in ANC's #4, #3, #2, ...

........................................................................
.............................. CYCLE  156 ..............................
........................................................................

 iter      E             dE          RMSdq      gap      omega  full diag
   1    -46.5155729 -0.465156E+02  0.881E-03    8.38       0.0  T
   2    -46.5155735 -0.596216E-06  0.463E-03    8.39       4.4  T
   3    -46.5155736 -0.919212E-07  0.145E-03    8.39      14.1  T
   4    -46.5155736 -0.340349E-08  0.151E-04    8.39     134.8  T
   5    -46.5155736 -0.975646E-10  0.180E-05    8.39    1135.4  T
     SCC iter.                  ...        0 min,  0.019 sec
     gradient                   ...        0 min,  0.003 sec
 * total energy  :   -46.2538761 Eh     change       -0.1779822E-03 Eh
   gradient norm :     0.0064264 Eh/α   predicted    -0.1328789E-03 ( -25.34%)
   displ. norm   :     0.3688603 α      lambda       -0.2628940E-03
   maximum displ.:     0.2221025 α      in ANC's #4, #3, #2, ...

........................................................................
.............................. CYCLE  157 ..............................
........................................................................

 iter      E             dE          RMSdq      gap      omega  full diag
   1    -46.5144639 -0.465145E+02  0.113E-02    8.38       0.0  T
   2    -46.5144647 -0.757107E-06  0.587E-03    8.38       3.5  T
   3    -46.5144648 -0.101921E-06  0.173E-03    8.39      11.8  T
   4    -46.5144648 -0.437583E-08  0.176E-04    8.39     115.7  T
   5    -46.5144648 -0.149328E-09  0.190E-05    8.39    1072.3  T
     SCC iter.                  ...        0 min,  0.010 sec
     gradient                   ...        0 min,  0.018 sec
 * total energy  :   -46.2540825 Eh     change       -0.2063828E-03 Eh
   gradient norm :     0.0115657 Eh/α   predicted    -0.1493324E-03 ( -27.64%)
   displ. norm   :     0.5294359 α      lambda       -0.5483781E-03
   maximum displ.:     0.3269646 α      in ANC's #4, #3, #2, ...

........................................................................
.............................. CYCLE  158 ..............................
........................................................................

 iter      E             dE          RMSdq      gap      omega  full diag
   1    -46.5158724 -0.465159E+02  0.167E-02    8.38       0.0  T
   2    -46.5158736 -0.115399E-05  0.873E-03    8.38       2.3  T
   3    -46.5158737 -0.170083E-06  0.195E-03    8.38      10.5  T
   4    -46.5158737 -0.968905E-08  0.246E-04    8.38      83.0  T
   5    -46.5158737 -0.303174E-09  0.274E-05    8.38     743.7  T
   6    -46.5158737 -0.554223E-11  0.514E-06    8.38    3974.6  T
     SCC iter.                  ...        0 min,  0.010 sec
     gradient                   ...        0 min,  0.004 sec
 * total energy  :   -46.2544493 Eh     change       -0.3668251E-03 Eh
   gradient norm :     0.0151318 Eh/α   predicted    -0.3510454E-03 (  -4.30%)
   displ. norm   :     0.5896511 α      lambda       -0.7445824E-03
   maximum displ.:     0.3584943 α      in ANC's #4, #3, #2, ...

........................................................................
.............................. CYCLE  159 ..............................
........................................................................

 iter      E             dE          RMSdq      gap      omega  full diag
   1    -46.5131069 -0.465131E+02  0.201E-02    8.38       0.0  T
   2    -46.5131079 -0.102935E-05  0.111E-02    8.38       1.8  T
   3    -46.5131081 -0.146675E-06  0.202E-03    8.37      10.1  T
   4    -46.5131081 -0.159465E-07  0.205E-04    8.37      99.7  T
   5    -46.5131081 -0.250914E-09  0.362E-05    8.37     563.9  T
   6    -46.5131081 -0.913047E-11  0.614E-06    8.37    3322.3  T
     SCC iter.                  ...        0 min,  0.023 sec
     gradient                   ...        0 min,  0.004 sec
 * total energy  :   -46.2547052 Eh     change       -0.2559290E-03 Eh
   gradient norm :     0.0193835 Eh/α   predicted    -0.5017323E-03 (  96.04%)
   displ. norm   :     0.3385949 α      lambda       -0.1368918E-02
   maximum displ.:     0.1660242 α      in ANC's #12, #21, #18, ...

........................................................................
.............................. CYCLE  160 ..............................
........................................................................

 iter      E             dE          RMSdq      gap      omega  full diag
   1    -46.5298126 -0.465298E+02  0.511E-02    8.46       0.0  T
   2    -46.5298175 -0.482861E-05  0.279E-02    8.44       1.0  T
   3    -46.5298181 -0.652007E-06  0.481E-03    8.43       4.2  T
   4    -46.5298182 -0.772884E-07  0.416E-04    8.43      49.0  T
   5    -46.5298182 -0.107129E-08  0.592E-05    8.43     345.1  T
   6    -46.5298182 -0.269083E-10  0.178E-05    8.43    1146.9  T
     SCC iter.                  ...        0 min,  0.021 sec
     gradient                   ...        0 min,  0.005 sec
 * total energy  :   -46.2536437 Eh     change        0.1061470E-02 Eh
   gradient norm :     0.0492273 Eh/α   predicted    -0.7629313E-03 (-171.87%)
   displ. norm   :     0.1908028 α      lambda       -0.3092733E-02
   maximum displ.:     0.0722098 α      in ANC's #14, #18, #21, ...

........................................................................
.............................. CYCLE  161 ..............................
........................................................................

 iter      E             dE          RMSdq      gap      omega  full diag
   1    -46.5213004 -0.465213E+02  0.376E-02    8.38       0.0  T
   2    -46.5213048 -0.443755E-05  0.193E-02    8.37       1.1  T
   3    -46.5213053 -0.504225E-06  0.423E-03    8.37       4.8  T
   4    -46.5213053 -0.405882E-07  0.405E-04    8.37      50.4  T
   5    -46.5213053 -0.980833E-09  0.470E-05    8.37     434.2  T
   6    -46.5213053 -0.168754E-10  0.907E-06    8.37    2251.5  T
     SCC iter.                  ...        0 min,  0.006 sec
     gradient                   ...        0 min,  0.021 sec
 * total energy  :   -46.2549925 Eh     change       -0.1348763E-02 Eh
   gradient norm :     0.0209312 Eh/α   predicted    -0.1602664E-02 (  18.82%)
   displ. norm   :     0.1476269 α      lambda       -0.7922790E-03
   maximum displ.:     0.0567270 α      in ANC's #3, #10, #25, ...

........................................................................
.............................. CYCLE  162 ..............................
........................................................................

 iter      E             dE          RMSdq      gap      omega  full diag
   1    -46.5163413 -0.465163E+02  0.225E-02    8.34       0.0  T
   2    -46.5163427 -0.134317E-05  0.116E-02    8.35       1.8  T
   3    -46.5163429 -0.201763E-06  0.230E-03    8.35       8.9  T
   4    -46.5163429 -0.124058E-07  0.235E-04    8.35      86.8  T
   5    -46.5163429 -0.409237E-09  0.351E-05    8.35     580.8  T
   6    -46.5163429 -0.938627E-11  0.692E-06    8.35    2948.6  T
     SCC iter.                  ...        0 min,  0.010 sec
     gradient                   ...        0 min,  0.014 sec
 * total energy  :   -46.2551678 Eh     change       -0.1752764E-03 Eh
   gradient norm :     0.0181770 Eh/α   predicted    -0.4047745E-03 ( 130.93%)
   displ. norm   :     0.0783558 α      lambda       -0.3889215E-03
   maximum displ.:     0.0343881 α      in ANC's #12, #3, #20, ...

........................................................................
.............................. CYCLE  163 ..............................
........................................................................

 iter      E             dE          RMSdq      gap      omega  full diag
   1    -46.5183791 -0.465184E+02  0.155E-02    8.38       0.0  T
   2    -46.5183795 -0.388959E-06  0.846E-03    8.38       2.4  T
   3    -46.5183795 -0.569417E-07  0.137E-03    8.37      14.9  T
   4    -46.5183795 -0.586490E-08  0.139E-04    8.37     147.0  T
   5    -46.5183795 -0.153854E-09  0.174E-05    8.37    1173.8  T
     SCC iter.                  ...        0 min,  0.012 sec
     gradient                   ...        0 min,  0.002 sec
 * total energy  :   -46.2553102 Eh     change       -0.1424303E-03 Eh
   gradient norm :     0.0085794 Eh/α   predicted    -0.1956608E-03 (  37.37%)
   displ. norm   :     0.1469145 α      lambda       -0.3385354E-03
   maximum displ.:     0.0636268 α      in ANC's #3, #16, #2, ...

........................................................................
.............................. CYCLE  164 ..............................
........................................................................

 iter      E             dE          RMSdq      gap      omega  full diag
   1    -46.5204872 -0.465205E+02  0.163E-02    8.37       0.0  T
   2    -46.5204881 -0.878934E-06  0.846E-03    8.36       2.4  T
   3    -46.5204882 -0.985398E-07  0.194E-03    8.36      10.5  T
   4    -46.5204882 -0.873496E-08  0.145E-04    8.36     140.6  T
   5    -46.5204882 -0.152461E-09  0.216E-05    8.36     944.5  T
     SCC iter.                  ...        0 min,  0.008 sec
     gradient                   ...        0 min,  0.003 sec
 * total energy  :   -46.2554254 Eh     change       -0.1152191E-03 Eh
   gradient norm :     0.0121447 Eh/α   predicted    -0.1729249E-03 (  50.08%)
   displ. norm   :     0.0921988 α      lambda       -0.2067580E-03
   maximum displ.:     0.0333531 α      in ANC's #11, #17, #4, ...

........................................................................
.............................. CYCLE  165 ..............................
........................................................................

 iter      E             dE          RMSdq      gap      omega  full diag
   1    -46.5204431 -0.465204E+02  0.970E-03    8.36       0.0  T
   2    -46.5204435 -0.364194E-06  0.469E-03    8.36       4.4  T
   3    -46.5204435 -0.407358E-07  0.108E-03    8.36      18.9  T
   4    -46.5204435 -0.219163E-08  0.948E-05    8.36     215.4  T
   5    -46.5204435 -0.595719E-10  0.101E-05    8.36    2011.8  T
     SCC iter.                  ...        0 min,  0.024 sec
     gradient                   ...        0 min,  0.005 sec
 * total energy  :   -46.2555660 Eh     change       -0.1405786E-03 Eh
   gradient norm :     0.0113846 Eh/α   predicted    -0.1042602E-03 ( -25.83%)
   displ. norm   :     0.2447346 α      lambda       -0.4870441E-03
   maximum displ.:     0.0876759 α      in ANC's #16, #7, #11, ...

........................................................................
.............................. CYCLE  166 ..............................
........................................................................

 iter      E             dE          RMSdq      gap      omega  full diag
   1    -46.5149354 -0.465149E+02  0.204E-02    8.33       0.0  T
   2    -46.5149364 -0.994405E-06  0.108E-02    8.34       1.9  T
   3    -46.5149366 -0.155965E-06  0.201E-03    8.34      10.2  T
   4    -46.5149366 -0.104971E-07  0.201E-04    8.34     101.7  T
   5    -46.5149366 -0.275989E-09  0.255E-05    8.34     800.9  T
   6    -46.5149366 -0.471800E-11  0.560E-06    8.34    3644.0  T
     SCC iter.                  ...        0 min,  0.021 sec
     gradient                   ...        0 min,  0.003 sec
 * total energy  :   -46.2556427 Eh     change       -0.7671571E-04 Eh
   gradient norm :     0.0149984 Eh/α   predicted    -0.2581115E-03 ( 236.45%)
   displ. norm   :     0.1029278 α      lambda       -0.3381041E-03
   maximum displ.:     0.0407906 α      in ANC's #2, #3, #4, ...

........................................................................
.............................. CYCLE  167 ..............................
........................................................................

 iter      E             dE          RMSdq      gap      omega  full diag
   1    -46.5185449 -0.465185E+02  0.130E-02    8.36       0.0  T
   2    -46.5185453 -0.345933E-06  0.702E-03    8.36       2.9  T
   3    -46.5185453 -0.497385E-07  0.127E-03    8.35      16.1  T
   4    -46.5185453 -0.475094E-08  0.121E-04    8.35     169.0  T
   5    -46.5185453 -0.854783E-10  0.154E-05    8.35    1323.1  T
     SCC iter.                  ...        0 min,  0.010 sec
     gradient                   ...        0 min,  0.003 sec
 * total energy  :   -46.2558398 Eh     change       -0.1970564E-03 Eh
   gradient norm :     0.0069030 Eh/α   predicted    -0.1708467E-03 ( -13.30%)
   displ. norm   :     0.0967083 α      lambda       -0.1214416E-03
   maximum displ.:     0.0479312 α      in ANC's #4, #20, #19, ...

........................................................................
.............................. CYCLE  168 ..............................
........................................................................

 iter      E             dE          RMSdq      gap      omega  full diag
   1    -46.5204033 -0.465204E+02  0.586E-03    8.36       0.0  T
   2    -46.5204034 -0.538490E-07  0.319E-03    8.36       6.4  T
   3    -46.5204034 -0.961917E-08  0.503E-04    8.36      40.5  T
   4    -46.5204034 -0.732562E-09  0.423E-05    8.36     482.4  T
   5    -46.5204034 -0.139551E-10  0.532E-06    8.36    3838.7  T
     SCC iter.                  ...        0 min,  0.004 sec
     gradient                   ...        0 min,  0.004 sec
 * total energy  :   -46.2559208 Eh     change       -0.8101128E-04 Eh
   gradient norm :     0.0050356 Eh/α   predicted    -0.6129219E-04 ( -24.34%)
   displ. norm   :     0.2404205 α      lambda       -0.2021272E-03
   maximum displ.:     0.1127378 α      in ANC's #3, #2, #20, ...

........................................................................
.............................. CYCLE  169 ..............................
........................................................................

 iter      E             dE          RMSdq      gap      omega  full diag
   1    -46.5188781 -0.465189E+02  0.103E-02    8.35       0.0  T
   2    -46.5188789 -0.800932E-06  0.521E-03    8.34       3.9  T
   3    -46.5188790 -0.116558E-06  0.151E-03    8.34      13.5  T
   4    -46.5188790 -0.431380E-08  0.203E-04    8.34     100.7  T
   5    -46.5188790 -0.163134E-09  0.179E-05    8.34    1141.7  T
   6    -46.5188790 -0.243006E-11  0.372E-06    8.34    5490.6  T
     SCC iter.                  ...        0 min,  0.007 sec
     gradient                   ...        0 min,  0.016 sec
 * total energy  :   -46.2559881 Eh     change       -0.6727804E-04 Eh
   gradient norm :     0.0080322 Eh/α   predicted    -0.1069063E-03 (  58.90%)
   displ. norm   :     0.1097211 α      lambda       -0.1370928E-03
   maximum displ.:     0.0624518 α      in ANC's #3, #4, #2, ...

........................................................................
.............................. CYCLE  170 ..............................
........................................................................

 iter      E             dE          RMSdq      gap      omega  full diag
   1    -46.5198988 -0.465199E+02  0.772E-03    8.34       0.0  T
   2    -46.5198989 -0.132978E-06  0.445E-03    8.35       4.6  T
   3    -46.5198989 -0.225370E-07  0.722E-04    8.35      28.3  T
   4    -46.5198989 -0.257002E-08  0.877E-05    8.35     232.9  T
   5    -46.5198989 -0.524949E-10  0.118E-05    8.35    1732.8  T
     SCC iter.                  ...        0 min,  0.008 sec
     gradient                   ...        0 min,  0.003 sec
 * total energy  :   -46.2560413 Eh     change       -0.5325741E-04 Eh
   gradient norm :     0.0042088 Eh/α   predicted    -0.6937574E-04 (  30.26%)
   displ. norm   :     0.0512014 α      lambda       -0.5601261E-04
   maximum displ.:     0.0195754 α      in ANC's #4, #8, #3, ...

........................................................................
.............................. CYCLE  171 ..............................
........................................................................

 iter      E             dE          RMSdq      gap      omega  full diag
   1    -46.5195592 -0.465196E+02  0.514E-03    8.35       0.0  T
   2    -46.5195593 -0.126812E-06  0.248E-03    8.35       8.2  T
   3    -46.5195593 -0.142305E-07  0.607E-04    8.35      33.6  T
   4    -46.5195593 -0.702428E-09  0.772E-05    8.35     264.5  T
   5    -46.5195593 -0.284359E-10  0.479E-06    8.35    4261.7  T
     SCC iter.                  ...        0 min,  0.019 sec
     gradient                   ...        0 min,  0.002 sec
 * total energy  :   -46.2560778 Eh     change       -0.3652507E-04 Eh
   gradient norm :     0.0028889 Eh/α   predicted    -0.2808104E-04 ( -23.12%)
   displ. norm   :     0.0802395 α      lambda       -0.6724262E-04
   maximum displ.:     0.0285657 α      in ANC's #8, #9, #4, ...

   *** GEOMETRY OPTIMIZATION CONVERGED AFTER 171 ITERATIONS ***

------------------------------------------------------------------------
 total energy gain   :        -0.1066448 Eh      -66.9206 kcal/mol
 total RMSD          :         5.1545200 a0        2.7277 Å
 total power (kW/mol):        -1.6374021 (step)  -62.2351 (real)
------------------------------------------------------------------------

 ANCopt (total)                0 d,  0 h,  0 min,  4.499 sec
 optimizer setup                ...        0 min,  0.001 sec (  0.022%)
 model hessian                  ...        0 min,  0.054 sec (  1.200%)
 ANC generation                 ...        0 min,  0.009 sec (  0.200%)
 coordinate transformation      ...        0 min,  0.002 sec (  0.044%)
 single point calculation       ...        0 min,  4.174 sec ( 92.776%)
 optimization log               ...        0 min,  0.059 sec (  1.311%)
 hessian update                 ...        0 min,  0.133 sec (  2.956%)
 rational function              ...        0 min,  0.056 sec (  1.245%)

================
 final structure:
================
24
 xtb: 6.7.1pre (5071a88)
O            4.45418196321680        4.74185885377006        3.66723305208700
H            4.13860353879869        4.40196986527479        4.51397990553300
H            5.36790694931081        4.43041826933241        3.60923717602204
O            4.62122396815319        4.44796241351574        6.57940675962039
H            3.95934123444093        4.03772006517777        7.13810878908558
H            4.49509270968922        5.41315222136143        6.67436965050239
O            4.76403868538531        7.49435852929646        4.04525388379255
H            4.52290587024632        6.60108883372410        3.74271617640628
H            4.44698635070410        7.53408815232591        4.95832867800878
O            4.48719981747919        7.16685333395931        6.87492505004108
H            5.45856576474470        7.30352573623711        7.04373118552688
H            4.04757601686584        7.74786622204222        7.49803240091649
O            6.97460117944357        4.22093628854384        4.84685642538866
H            6.20685391713358        4.23780183524725        5.43148283258605
H            7.22010324422552        5.15255455207102        4.71826396066981
O            7.37703008517167        4.66048708489817        7.61872620786809
H            7.79735857646460        4.30749697436544        6.82357345453214
H            6.44222270944725        4.43991547173373        7.51954101256847
O            7.34308430712011        7.01098658970960        4.55403540556689
H            6.40256352437655        7.23478513123563        4.34409447184407
H            7.86000003038970        7.42675493732135        3.86252184562105
O            7.08454482271908        7.42523563094108        7.32120934391299
H            7.39525928365674        7.44959419965365        6.40195655359002
H            7.32753070052497        6.53107931856959        7.62067847861398
 
 Bond Distances (Angstroems)
 ---------------------------
O1-H2=0.9655         O1-H3=0.9671         H2-O1=0.9655         H3-O1=0.9671         O4-H5=0.9584         O4-H6=0.9780         
H5-O4=0.9584         H6-O4=0.9780         O7-H8=0.9735         O7-H9=0.9674         H8-O7=0.9735         H9-O7=0.9674         
O10-H11=0.9954       O10-H12=0.9587       H11-O10=0.9954       H12-O10=0.9587       O13-H14=0.9651       O13-H15=0.9720       
H14-O13=0.9651       H15-O13=0.9720       O16-H17=0.9662       O16-H18=0.9656       H17-O16=0.9662       H18-O16=0.9656       
O19-H20=0.9893       O19-H21=0.9583       H20-O19=0.9893       H21-O19=0.9583       O22-H23=0.9707       O22-H24=0.9738       
H23-O22=0.9707       H24-O22=0.9738       
 O  H  Rav=0.9703 sigma=0.0100  Rmin=0.9583  Rmax=0.9954    16
 
 selected bond angles (degree)
 --------------------
H3-O1-H2=104.36                H6-O4-H5=106.07                H9-O7-H8=104.47                H12-O10-H11=104.72             
 
 selected dihedral angles (degree)
 ---------------------------------

 
 CMA Distance (Angstroems)
 ---------------------------
R(CMA):  3.0856
           -------------------------------------------------
          |                Final Singlepoint                |
           -------------------------------------------------

          ...................................................
          :                      SETUP                      :
          :.................................................:
          :  # basis functions                  64          :
          :  # atomic orbitals                  64          :
          :  # shells                           48          :
          :  # electrons                        64          :
          :  # halogen bonds                     0          :
          :  max. iterations                   250          :
          :  Hamiltonian                  GFN1-xTB          :
          :  restarted?                      false          :
          :  GBSA solvation                  false          :
          :  PC potential                    false          :
          :  electronic temp.          300.0000000     K    :
          :  accuracy                    1.0000000          :
          :  -> integral cutoff          0.2500000E+02      :
          :  -> integral neglect         0.1000000E-07      :
          :  -> SCF convergence          0.1000000E-05 Eh   :
          :  -> wf. convergence          0.2000000E-04 e    :
          :  Broyden damping             0.4000000          :
          :  net charge                          0          :
          :  unpaired electrons                  0          :
          ...................................................

 iter      E             dE          RMSdq      gap      omega  full diag
   1    -46.5195593 -0.465196E+02  0.921E-07    8.35       0.0  T
   2    -46.5195593 -0.497380E-13  0.488E-07    8.35   41844.6  T
   3    -46.5195593  0.639488E-13  0.397E-08    8.35  100000.0  T

   *** convergence criteria satisfied after 3 iterations ***

         #    Occupation            Energy/Eh            Energy/eV
      -------------------------------------------------------------
         1        2.0000           -0.7830879             -21.3089
       ...           ...                  ...                  ...
        26        2.0000           -0.5128103             -13.9543
        27        2.0000           -0.5039853             -13.7141
        28        2.0000           -0.4978527             -13.5473
        29        2.0000           -0.4964616             -13.5094
        30        2.0000           -0.4904026             -13.3445
        31        2.0000           -0.4898460             -13.3294
        32        2.0000           -0.4878637             -13.2754 (HOMO)
        33                         -0.1810792              -4.9274 (LUMO)
        34                         -0.1523903              -4.1468
        35                         -0.1441525              -3.9226
        36                         -0.1304382              -3.5494
        37                         -0.1191112              -3.2412
       ...                                ...                  ...
        64                          0.5765810              15.6896
      -------------------------------------------------------------
                  HL-Gap            0.3067845 Eh            8.3480 eV
             Fermi-level           -0.3344715 Eh           -9.1014 eV

 SCC (total)                   0 d,  0 h,  0 min,  0.023 sec
 SCC setup                      ...        0 min,  0.000 sec (  0.000%)
 Dispersion                     ...        0 min,  0.000 sec (  0.000%)
 classical contributions        ...        0 min,  0.000 sec (  0.000%)
 integral evaluation            ...        0 min,  0.002 sec (  8.695%)
 iterations                     ...        0 min,  0.003 sec ( 13.044%)
 molecular gradient             ...        0 min,  0.017 sec ( 73.913%)
 printout                       ...        0 min,  0.001 sec (  4.349%)

         :::::::::::::::::::::::::::::::::::::::::::::::::::::
         ::                     SUMMARY                     ::
         :::::::::::::::::::::::::::::::::::::::::::::::::::::
         :: total energy             -46.256077848854 Eh    ::
         :: gradient norm              0.002889470893 Eh/a0 ::
         :: HOMO-LUMO gap              8.348030517764 eV    ::
         ::.................................................::
         :: SCC energy               -46.519559306657 Eh    ::
         :: -> electrostatic           0.375014565091 Eh    ::
         :: repulsion energy           0.272154275871 Eh    ::
         :: dispersion energy         -0.008672818067 Eh    ::
         :: halogen bond corr.         0.000000000000 Eh    ::
         :: add. restraining           0.000000000000 Eh    ::
         :: total charge              -0.000000000000 e     ::
         :::::::::::::::::::::::::::::::::::::::::::::::::::::

           -------------------------------------------------
          |                Property Printout                |
           -------------------------------------------------

    * Orbital Energies and Occupations

         #    Occupation            Energy/Eh            Energy/eV
      -------------------------------------------------------------
         1        2.0000           -0.7830879             -21.3089
       ...           ...                  ...                  ...
        20        2.0000           -0.5550601             -15.1040
        21        2.0000           -0.5509315             -14.9916
        22        2.0000           -0.5444284             -14.8147
        23        2.0000           -0.5362737             -14.5927
        24        2.0000           -0.5344267             -14.5425
        25        2.0000           -0.5238986             -14.2560
        26        2.0000           -0.5128103             -13.9543
        27        2.0000           -0.5039853             -13.7141
        28        2.0000           -0.4978527             -13.5473
        29        2.0000           -0.4964616             -13.5094
        30        2.0000           -0.4904026             -13.3445
        31        2.0000           -0.4898460             -13.3294
        32        2.0000           -0.4878637             -13.2754 (HOMO)
        33                         -0.1810792              -4.9274 (LUMO)
        34                         -0.1523903              -4.1468
        35                         -0.1441525              -3.9226
        36                         -0.1304382              -3.5494
        37                         -0.1191112              -3.2412
        38                         -0.0874667              -2.3801
        39                         -0.0810506              -2.2055
        40                         -0.0493699              -1.3434
        41                         -0.0426555              -1.1607
        42                         -0.0283273              -0.7708
        43                         -0.0160388              -0.4364
       ...                                ...                  ...
        64                          0.5765810              15.6896
      -------------------------------------------------------------
                  HL-Gap            0.3067845 Eh            8.3480 eV
             Fermi-level           -0.3344715 Eh           -9.1014 eV

  Mulliken/CM5 charges         n(s)   n(p)   n(d)
     1O    -0.68538 -1.03964   1.711  4.975  0.000
     2H     0.33679  0.51359   0.663  0.000  0.000
     3H     0.34750  0.52542   0.653  0.000  0.000
     4O    -0.69792 -1.06453   1.714  4.984  0.000
     5H     0.34696  0.51616   0.653  0.000  0.000
     6H     0.36436  0.55016   0.636  0.000  0.000
     7O    -0.69709 -1.05522   1.717  4.980  0.000
     8H     0.35287  0.53485   0.647  0.000  0.000
     9H     0.34299  0.52415   0.657  0.000  0.000
    10O    -0.71288 -1.07607   1.720  4.993  0.000
    11H     0.36994  0.55635   0.630  0.000  0.000
    12H     0.34535  0.51460   0.655  0.000  0.000
    13O    -0.69961 -1.05362   1.716  4.983  0.000
    14H     0.33587  0.52283   0.664  0.000  0.000
    15H     0.34551  0.52899   0.654  0.000  0.000
    16O    -0.68488 -1.03927   1.710  4.975  0.000
    17H     0.34658  0.52169   0.653  0.000  0.000
    18H     0.33676  0.51637   0.663  0.000  0.000
    19O    -0.70692 -1.06979   1.717  4.990  0.000
    20H     0.36460  0.55095   0.635  0.000  0.000
    21H     0.34485  0.51421   0.655  0.000  0.000
    22O    -0.69879 -1.05801   1.720  4.978  0.000
    23H     0.34911  0.53095   0.651  0.000  0.000
    24H     0.35341  0.53486   0.647  0.000  0.000

Wiberg/Mayer (AO) data.
largest (>0.10) Wiberg bond orders for each atom

 ---------------------------------------------------------------------------
     #   Z sym  total        # sym  WBO       # sym  WBO       # sym  WBO
 ---------------------------------------------------------------------------
     1   8 O    1.837 --     2 H    0.872     3 H    0.858
     2   1 H    0.910 --     1 O    0.872
     3   1 H    0.901 --     1 O    0.858
     4   8 O    1.844 --     5 H    0.880     6 H    0.811
     5   1 H    0.887 --     4 O    0.880
     6   1 H    0.891 --     4 O    0.811
     7   8 O    1.856 --     9 H    0.856     8 H    0.835
     8   1 H    0.898 --     7 O    0.835
     9   1 H    0.906 --     7 O    0.856
    10   8 O    1.844 --    12 H    0.880    11 H    0.772
    11   1 H    0.882 --    10 O    0.772    22 O    0.109
    12   1 H    0.888 --    10 O    0.880
    13   8 O    1.833 --    14 H    0.865    15 H    0.844
    14   1 H    0.913 --    13 O    0.865
    15   1 H    0.906 --    13 O    0.844
    16   8 O    1.837 --    18 H    0.867    17 H    0.866
    17   1 H    0.901 --    16 O    0.866
    18   1 H    0.911 --    16 O    0.867
    19   8 O    1.843 --    21 H    0.882    20 H    0.787
    20   1 H    0.887 --    19 O    0.787
    21   1 H    0.888 --    19 O    0.882
    22   8 O    1.864 --    23 H    0.845    24 H    0.836    11 H    0.109
    23   1 H    0.902 --    22 O    0.845
    24   1 H    0.898 --    22 O    0.836
 ---------------------------------------------------------------------------

Topologies differ in total number of bonds
Writing topology from bond orders to xtbtopo.mol

 dipole moment from electron density (au)
     X       Y       Z   
  -1.1085  -0.0234   0.8929  total (Debye):    3.618

           -------------------------------------------------
          |                Geometry Summary                 |
           -------------------------------------------------

      molecular mass/u    :      144.1222914
   center of mass at/Å    :        5.8803852       5.8954731       5.6946479
  moments of inertia/u·Å² :        0.4881432E+03   0.5637106E+03   0.6358607E+03
rotational constants/cm⁻¹ :        0.3453419E-01   0.2990476E-01   0.2651152E-01

 * 16 selected distances

     #   Z          #   Z                                           value/Å
     1   8 O        2   1 H                                       0.9654505
     1   8 O        3   1 H                                       0.9670844
     4   8 O        5   1 H                                       0.9584027
     4   8 O        6   1 H                                       0.9780177
     7   8 O        8   1 H                                       0.9734501
     7   8 O        9   1 H                                       0.9673709
    10   8 O       11   1 H                                       0.9953526 (max)
    10   8 O       12   1 H                                       0.9587012
    13   8 O       14   1 H                                       0.9651469
    13   8 O       15   1 H                                       0.9719671
    16   8 O       17   1 H                                       0.9662019
    16   8 O       18   1 H                                       0.9655851
    19   8 O       20   1 H                                       0.9893131
    19   8 O       21   1 H                                       0.9582569 (min)
    22   8 O       23   1 H                                       0.9706506
    22   8 O       24   1 H                                       0.9737759

 * 1 distinct bonds (by element types)

   Z      Z             #   av. dist./Å        max./Å        min./Å
   1 H    8 O          16     0.9702955     0.9953526     0.9582569


optimized geometry written to: xtbopt.xyz


           -------------------------------------------------
          | TOTAL ENERGY              -46.256077848854 Eh   |
          | GRADIENT NORM               0.002889470893 Eh/α |
          | HOMO-LUMO GAP               8.348030517764 eV   |
           -------------------------------------------------

------------------------------------------------------------------------
 * finished run on 2026/07/10 at 14:12:31.077     
------------------------------------------------------------------------
 total:
 * wall-time:     0 d,  0 h,  0 min,  4.606 sec
 *  cpu-time:     0 d,  0 h,  0 min, 15.531 sec
 * ratio c/w:     3.372 speedup
 SCF:
 * wall-time:     0 d,  0 h,  0 min,  0.029 sec
 *  cpu-time:     0 d,  0 h,  0 min,  0.016 sec
 * ratio c/w:     0.539 speedup
 ANC optimizer:
 * wall-time:     0 d,  0 h,  0 min,  4.533 sec
 *  cpu-time:     0 d,  0 h,  0 min, 15.484 sec
 * ratio c/w:     3.416 speedup

normal termination of xtb
