16
Properties=species:S:1:pos:R:3:forces:R:3 energy:=T -17.815412885497=T gnorm:=T 0.000359351609=T xtb:=T 6.7.1=T (edcfbbe)=T energy=-6381.793267687582 free_energy=-6381.793267687582 pbc="F F F"
C       -0.70072862       1.01305796      -0.02440369       0.39149077       0.11553313       1.13749374
C        0.01552511      -0.07343520      -0.30990496      -0.01275557      -0.00936779      -0.01402299
C        1.45448597      -0.07342553      -0.30990967       0.01275163      -0.00936800      -0.01401803
C        2.17072586       1.01307550      -0.02440337      -0.39149265       0.11551624       1.13749400
C        1.40062082       1.24034971       2.36294853       0.37176284      -0.11014690      -1.14799939
C        0.06937401       1.24036467       2.36294599      -0.37175853      -0.11016646      -1.14800261
H       -0.28925823       2.00440185      -0.00407372       0.00147306       0.00443638       0.00106434
H       -1.76814278       0.94335587       0.10450402       0.00696219      -0.00257102       0.00957435
H       -0.49788398      -1.01903870      -0.38385488       0.00449576       0.00198164       0.00095784
H        1.96790822      -1.01902140      -0.38386714      -0.00449914       0.00198261       0.00095740
H        3.23814172       0.94338742       0.10449814      -0.00696293      -0.00257415       0.00957652
H        1.75924256       2.00441400      -0.00406740      -0.00147409       0.00443421       0.00107159
H        1.95936703       0.33764439       2.53931486      -0.00882117      -0.00167291       0.01583149
H        1.95816889       2.16082392       2.31548418      -0.00628715       0.00183317      -0.00290081
H       -0.48815318       2.16085129       2.31547594       0.00628618       0.00182838      -0.00290493
H       -0.48939342       0.33767279       2.53931316       0.00882877      -0.00167853       0.01582750
