16
Properties=species:S:1:pos:R:3:forces:R:3:charge:R:1 energy:=T -17.815412885497=T gnorm:=T 0.000359351609=T xtb:=T 6.7.1=T (edcfbbe)=T energy=-484.9822424325817 free_energy=-484.9822424325817 dipole="0.004258727737610047 -0.004958056999311533 -0.006302843140211845" pbc="F F F"
C       -1.04067360       0.66253855      -0.66275728       0.01038118      -0.00359712       0.00145722      -0.08535546
C       -0.03806527      -0.18401381      -0.45677548      -0.00755866       0.00095893      -0.00149499      -0.02413546
C        1.35882197       0.18114669      -0.27694313      -0.00271110       0.00794758      -0.00509535      -0.02410462
C        1.90840564       1.33826712      -0.62643214       0.00136718      -0.00916487       0.00118177      -0.08428699
C        1.47162643       0.80256347       3.40577016      -0.01815505       0.02369212      -0.01468017      -0.07736129
C        0.69044945       1.64392703       2.76105059       0.01330304      -0.02894715       0.01400730      -0.07587318
H       -0.88964221       1.72806969      -0.70727895      -0.00071783      -0.01066125       0.00134432       0.04141252
H       -2.05402779       0.31984285      -0.78528157       0.00156477       0.00228924       0.00119577       0.03553397
H       -0.24814919      -1.24504115      -0.39125907       0.00434767       0.01414978       0.00064413       0.03178488
H        1.97976250      -0.58552474       0.16929208       0.00058154       0.00455146      -0.00171521       0.03227515
H        2.95282796       1.53961918      -0.46051530      -0.00874138      -0.00064100      -0.00144158       0.03610698
H        1.34138954       2.12214163      -1.09930180       0.00378062      -0.00558821       0.00491129       0.04194674
H        1.27489876      -0.25678525       3.42588339      -0.00434727       0.00109570      -0.00283768       0.03717230
H        2.34495851       1.13093212       3.94542443      -0.00096533       0.00209181      -0.00192223       0.03779942
H        0.88790508       2.70309864       2.73991812       0.00270029       0.00031050       0.00088845       0.03778359
H       -0.18048775       1.31369651       2.21920596       0.00517033       0.00151247       0.00355696       0.03930146
