24
 energy: -46.256077848854 gnorm: 0.002889470893 xtb: 6.7.1pre (5071a88)
O            4.45418196321680        4.74185885377006        3.66723305208700
H            4.13860353879869        4.40196986527479        4.51397990553300
H            5.36790694931081        4.43041826933241        3.60923717602204
O            4.62122396815319        4.44796241351574        6.57940675962039
H            3.95934123444093        4.03772006517777        7.13810878908558
H            4.49509270968922        5.41315222136143        6.67436965050239
O            4.76403868538531        7.49435852929646        4.04525388379255
H            4.52290587024632        6.60108883372410        3.74271617640628
H            4.44698635070410        7.53408815232591        4.95832867800878
O            4.48719981747919        7.16685333395931        6.87492505004108
H            5.45856576474470        7.30352573623711        7.04373118552688
H            4.04757601686584        7.74786622204222        7.49803240091649
O            6.97460117944357        4.22093628854384        4.84685642538866
H            6.20685391713358        4.23780183524725        5.43148283258605
H            7.22010324422552        5.15255455207102        4.71826396066981
O            7.37703008517167        4.66048708489817        7.61872620786809
H            7.79735857646460        4.30749697436544        6.82357345453214
H            6.44222270944725        4.43991547173373        7.51954101256847
O            7.34308430712011        7.01098658970960        4.55403540556689
H            6.40256352437655        7.23478513123563        4.34409447184407
H            7.86000003038970        7.42675493732135        3.86252184562105
O            7.08454482271908        7.42523563094108        7.32120934391299
H            7.39525928365674        7.44959419965365        6.40195655359002
H            7.32753070052497        6.53107931856959        7.62067847861398
