16
Properties=species:S:1:pos:R:3:forces:R:3:charge:R:1 energy:=T -17.822955842371=T gnorm:=T 0.000913890081=T xtb:=T 6.7.1=T (edcfbbe)=T energy=-487.7574570918756 free_energy=-487.7574570918756 dipole="1.755587382792137e-05 0.08472706355431434 0.04631543834783357" pbc="F F F"
C       -0.70073784       1.02431401       0.07482305       0.01928401       0.01024789       0.06806793      -0.05398241
C        0.02646480      -0.05845595      -0.28582063      -0.00562854       0.00976060      -0.00037845      -0.04113082
C        1.44352400      -0.05845289      -0.28583330       0.00541162       0.01007978       0.00098775      -0.04112704
C        2.17073133       1.02431809       0.07479649      -0.01934584       0.00971898       0.06796146      -0.05398399
C        1.40958445       1.21964561       2.25989707       0.04851250      -0.00970971      -0.06671113      -0.05358391
C        0.06042774       1.21967648       2.25991400      -0.04851255      -0.00983823      -0.06673240      -0.05358449
H       -0.31018436       2.02082885      -0.01582177      -0.02044906      -0.00103447      -0.00121195       0.03993511
H       -1.77139205       0.95308275       0.17895075       0.00431646      -0.01864957      -0.01772184       0.02895582
H       -0.46756610      -1.01593856      -0.38849505       0.01110104      -0.00520532      -0.01374530       0.02224655
H        1.93755661      -1.01593444      -0.38851231      -0.01079058      -0.00558283      -0.01410681       0.02225059
H        3.24138681       0.95308683       0.17891225      -0.00436604      -0.01853960      -0.01779910       0.02895580
H        1.78017649       2.02083314      -0.01584073       0.02043994      -0.00075950      -0.00130754       0.03993719
H        1.96118932       0.32240888       2.47936819       0.01027917       0.02001175       0.01967499       0.02924243
H        1.96449702       2.14127205       2.29712210       0.00962724      -0.00529095       0.01160020       0.02831343
H       -0.49444384       2.14132770       2.29714066      -0.00961127      -0.00523181       0.01164830       0.02831318
H       -0.49121438       0.32246598       2.47939923      -0.01026809       0.02002300       0.01977389       0.02924256
