16
Properties=species:S:1:pos:R:3 energy:=T -17.822955842371=T gnorm:=T 0.000913890081=T xtb:=T 6.7.1=T (edcfbbe)=T pbc="F F F"
C        1.80692779       0.21441476      -0.24099520
C        0.92954070       1.39323748      -0.36315818
C       -0.38557178       1.53890746      -0.25259942
C       -1.38140352       0.48856115       0.01887894
C       -0.51393756      -1.06163697       0.98778098
C        1.00054928      -1.04873588       1.01111257
H        2.41969657       0.68427584       0.62366973
H        1.83761916      -0.14260628      -1.29387421
H        1.46367864       2.24698180      -0.76571882
H       -0.78473364       2.54586894      -0.20723556
H       -1.84164826       0.83500721       0.94694835
H       -1.81873092       0.36867863      -0.97559990
H       -0.82596541      -1.54873811       1.91228158
H       -0.92682851      -1.72156451       0.21934239
H        1.31190189      -0.82479425       2.02720991
H        1.32772464      -1.89909515       0.41389664
