16
Properties=species:S:1:pos:R:3:forces:R:3:charge:R:1 energy:=T -17.815412885497=T gnorm:=T 0.000359351609=T xtb:=T 6.7.1=T (edcfbbe)=T energy=-484.69626584977607 free_energy=-484.69626584977607 dipole="3.449535796310499e-05 0.05288799355708941 0.018152713795773972" pbc="F F F"
C       -0.70036885       1.02221168       0.07676932      -0.00001026      -0.00001380      -0.00000099      -0.07398840
C        0.02642834      -0.06226247      -0.28267962       0.00001558       0.00041062      -0.00001480      -0.03303840
C        1.44235137      -0.06219274      -0.28348161       0.00001450      -0.00041350       0.00001398      -0.03303792
C        2.16950846       1.02228825       0.07520958      -0.00001039       0.00001657       0.00000176      -0.07398623
C        1.41112984       1.22438270       2.25339722       0.00000577       0.00000453      -0.00000842      -0.07703755
C        0.06046299       1.22452763       2.25413016       0.00000140      -0.00000432       0.00000877      -0.07704073
H       -0.31267134       2.01853976      -0.02793663      -0.00001595      -0.00001264       0.00000126       0.04777410
H       -1.77027898       0.95030389       0.18716926      -0.00000060      -0.00002903       0.00000330       0.03455492
H       -0.46652895      -1.02093266      -0.37679775       0.00001628      -0.00001800       0.00000235       0.02781880
H        1.93526384      -1.02083365      -0.37817402       0.00001629       0.00001836      -0.00000198       0.02781517
H        3.23954428       0.95038724       0.18439462      -0.00000239       0.00002942      -0.00000278       0.03455658
H        1.78168077       2.01861545      -0.02901721      -0.00001673       0.00001316      -0.00000161       0.04777304
H        1.96140683       0.32864359       2.48205786       0.00000910       0.00001372      -0.00000331       0.03482477
H        1.96613138       2.14580111       2.29013227      -0.00001352       0.00001363      -0.00000492       0.03909464
H       -0.49429006       2.14607497       2.29141048      -0.00001557      -0.00001296       0.00000370       0.03908870
H       -0.48976994       0.32892377       2.48341608       0.00000647      -0.00001575       0.00000369       0.03482850
