16
Properties=species:S:1:pos:R:3:forces:R:3:charge:R:1 energy:=T -17.815412885497=T gnorm:=T 0.000359351609=T xtb:=T 6.7.1=T (edcfbbe)=T energy=-484.967209802443 free_energy=-484.967209802443 dipole="0.0011906378863200471 -0.0017399925191686875 -0.0021043290974987025" pbc="F F F"
C       -1.20193660       0.42773060      -1.78669463      -0.00094126       0.00120808       0.00410048      -0.08504330
C       -0.36205474      -0.29202488      -1.05155873       0.00658159       0.00247709       0.00164553      -0.02555917
C        0.73706538       0.23037556      -0.25405479      -0.00272510      -0.00420181      -0.00115573      -0.02575952
C        1.26062149       1.44716846      -0.35002753       0.00760111       0.00814233      -0.00620069      -0.08439221
C        2.20248019       0.93984801       4.06784694      -0.01101597       0.00530675      -0.01125524      -0.07722966
C        1.40074541       1.67116896       3.32209197       0.01059067      -0.00505571       0.00783869      -0.07670507
H       -1.13798609       1.50083493      -1.84511338      -0.00018226       0.00095971       0.00029851       0.04158954
H       -1.99414954      -0.03247238      -2.35189688      -0.00024584       0.00042712      -0.00002287       0.03616873
H       -0.48840755      -1.36687808      -1.00851634       0.00121265      -0.00181218       0.00101183       0.03159719
H        1.15564207      -0.46591895       0.46235661      -0.00117485      -0.00178516       0.00276118       0.03236760
H        2.07711524       1.75964964       0.27864504      -0.00903321      -0.00194592      -0.00293775       0.03810919
H        0.90246267       2.17071451      -1.06279827       0.00349194      -0.00461319       0.00787645       0.04143396
H        2.12046204      -0.13401982       4.11180513      -0.00154135       0.00077027      -0.00359161       0.03734667
H        2.97947119       1.37802551       4.67307685      -0.00108680       0.00138261      -0.00369961       0.03756863
H        1.48409558       2.74509480       3.27978446       0.00000561      -0.00062350       0.00193934       0.03745803
H        0.62437327       1.23518167       2.71505356      -0.00153692      -0.00063649       0.00139148       0.04104938
