16
 energy: -17.914809188377 gnorm: 0.000576727536 xtb: 6.7.1 (edcfbbe)
C            1.51329820954265        0.03064372778272       -0.00000000269123
C            0.65902634783403        1.25274201985917       -0.00000004176897
C           -0.65902695295829        1.25274341981907        0.00000000016409
C           -1.51329816118952        0.03064396672413       -0.00000001528545
C           -0.77324691426341       -1.31860023678492       -0.00000003101563
C            0.77324745644331       -1.31860041616008        0.00000002890481
H            2.16913265756086        0.08540850188254        0.87457423766482
H            2.16913264273621        0.08540842534382       -0.87457425427802
H            1.20488122341102        2.18706906918681       -0.00000005312486
H           -1.20488324343171        2.18706945253428        0.00000011217990
H           -2.16913194034120        0.08540950903168        0.87457448221977
H           -2.16913198200553        0.08540955967900       -0.87457448108894
H           -1.10545223212403       -1.88273578131403        0.87293561086811
H           -1.10545218738349       -1.88273577285894       -0.87293569124982
H            1.10545251340988       -1.88273603217579        0.87293572320731
H            1.10545256275923       -1.88273607254946       -0.87293562470588
