16
cyclohexene product guess
C        1.45000000       0.00000000       0.00000000
C        0.72500000       1.25573684       0.00000000
C       -0.72500000       1.25573684       0.00000000
C       -1.45000000       0.00000000       0.00000000
C       -0.72500000      -1.25573684       0.00000000
C        0.72500000      -1.25573684       0.00000000
H        2.09800000       0.00000000       0.86400000
H        2.09800000       0.00000000      -0.86400000
H        1.26500000       2.19104427       0.00000000
H       -1.26500000       2.19104427       0.00000000
H       -2.09800000       0.00000000       0.86400000
H       -2.09800000       0.00000000      -0.86400000
H       -1.04900000      -1.81692130       0.86400000
H       -1.04900000      -1.81692130      -0.86400000
H        1.04900000      -1.81692130       0.86400000
H        1.04900000      -1.81692130      -0.86400000
