16
butadiene+ethylene reactant guess
C       -0.74931849       1.11091035       0.00000000
C        0.00000000       0.00000000       0.00000000
C        1.47000000       0.00000000       0.00000000
C        2.21931849       1.11091035       0.00000000
C        1.40500000       1.11091035       2.20000000
C        0.06500000       1.11091035       2.20000000
H       -0.27587765       2.08160792       0.00000000
H       -1.82668766       1.03557336       0.00000000
H       -0.50702929      -0.95358340       0.00000000
H        1.97702929      -0.95358340       0.00000000
H        3.29668766       1.03557336       0.00000000
H        1.74587765       2.08160792       0.00000000
H        1.94500000       0.17560291       2.20000000
H        1.94500000       2.04621778       2.20000000
H       -0.47500000       2.04621778       2.20000000
H       -0.47500000       0.17560291       2.20000000
