16
Properties=species:S:1:pos:R:3 pbc="F F F"
C       -0.37381861       1.24067506       0.53755883
C        0.17778508       0.15464400      -0.24886495
C        1.53101688       0.01303058      -0.55779820
C        2.50898610       0.92187118      -0.30666128
C        0.98349659       1.17711483       2.66381118
C       -0.30712170       0.97875399       2.06054943
H        0.13021376       2.18734024       0.34500686
H       -1.43389013       1.35786515       0.30712343
H       -0.47135043      -0.68733735      -0.44378311
H        1.81895831      -0.91200919      -1.04374816
H        3.53926932       0.70426448      -0.52384160
H        2.30381981       1.87732302       0.14115918
H        1.68037768       0.36639575       2.76559049
H        1.37082889       2.17262570       2.78542060
H       -1.01860799       1.69382887       2.48141846
H       -0.67996356      -0.03190775       2.23705884
