16
 energy: -17.822955842371 gnorm: 0.000913890081 xtb: 6.7.1 (edcfbbe)
C           -0.77705366171342        1.00256540690467       -0.37427009476979
C            0.00803256200130       -0.06812764284397       -0.41521322906930
C            1.46197116206354       -0.06812564810471       -0.41521221515338
C            2.24705463542940        1.00256938705189       -0.37426775202087
C            1.39307079458840        1.26848009371833        2.85079376398005
C            0.07692557534962        1.26848883890107        2.85080268292319
H           -0.38376945238960        2.00369825019639       -0.34107372816138
H           -1.85021749772031        0.91469762013637       -0.37351703268516
H           -0.44762224722583       -1.05037125121320       -0.44792900217166
H            1.91762869683319       -1.05036796840522       -0.44792790685170
H            3.32021862568563        0.91470446709018       -0.37351373751899
H            1.85376783656441        2.00370104115361       -0.34107232041061
H            1.96396440361933        0.35981627630994        2.94334149354234
H            1.96586751058426        2.17645167565352        2.75784428122501
H           -0.49586103136813        2.17646681007605        2.75785913667893
H           -0.49397791230219        0.35983118337497        2.94335566046330
