16
Properties=species:S:1:pos:R:3:forces:R:3:charge:R:1 energy:=T -17.812259918842=T gnorm:=T 0.000930443810=T xtb:=T 6.7.1=T (edcfbbe)=T energy=-484.6962367011637 free_energy=-484.6962367011637 dipole="0.0001245813823320214 0.05295302135381118 0.018277436146560782" pbc="F F F"
C       -0.70053680       1.02137986       0.07656456       0.00794293       0.00119990      -0.00257499      -0.07405884
C        0.02710316      -0.06243827      -0.28363755      -0.01106436       0.00241576       0.00086986      -0.03301263
C        1.44284504      -0.06238369      -0.28348519       0.01037043       0.00087333      -0.00021773      -0.03302543
C        2.17029543       1.02146801       0.07697032      -0.00715383       0.00262107      -0.00262119      -0.07403301
C        1.41047417       1.22535600       2.25380299      -0.00122248      -0.00715525      -0.00041787      -0.07701854
C        0.05978336       1.22549341       2.25404714       0.00089817      -0.00668348      -0.00015964      -0.07704930
H       -0.31286338       2.01787732      -0.02611527       0.00062509       0.00164735      -0.00268782       0.04778240
H       -1.77059256       0.94934735       0.18527923       0.00027742      -0.00183268       0.00173073       0.03454168
H       -0.46613934      -1.02078027      -0.38044802       0.00298053       0.00050335       0.00161209       0.02778728
H        1.93618833      -1.02067890      -0.38022097      -0.00298949       0.00040904       0.00162871       0.02778535
H        3.24034756       0.94951657       0.18587465      -0.00048750      -0.00171303       0.00144249       0.03454948
H        1.78256099       2.01794952      -0.02580260      -0.00030462       0.00116531      -0.00332219       0.04779683
H        1.96039061       0.32919299       2.48173542       0.00091111       0.00237762       0.00269600       0.03488788
H        1.96528393       2.14677201       2.29150076       0.00235592       0.00089003       0.00033769       0.03910854
H       -0.49489774       2.14698411       2.29183921      -0.00218045       0.00088603      -0.00037371       0.03908729
H       -0.49024276       0.32942252       2.48209534      -0.00095887       0.00239566       0.00205758       0.03487103
