16
 energy: 0.000000000000 xtb: 6.7.1 (edcfbbe)
C           -0.77705351752793        1.00256522087454       -0.37427002532244
C            0.00803256051082       -0.06812763020261       -0.41521315202478
C            1.46197089078879       -0.06812563546371       -0.41521213810905
C            2.24705421847920        1.00256920102103       -0.37426768257395
C            1.39307053609840        1.26847985834664        2.85079323500358
C            0.07692556107576        1.26848860352776        2.85080215394506
H           -0.38376938117960        2.00369787840197       -0.34107366487375
H           -1.85021715440487        0.91469745041048       -0.37351696337754
H           -0.44762216416769       -1.05037105631251       -0.44792891905660
H            1.91762834100932       -1.05036777350513       -0.44792782373684
H            3.32021800960545        0.91470429736301       -0.37351366821199
H            1.85376749259019        2.00370066935867       -0.34107225712324
H            1.96396403919768        0.35981620954456        2.94334094739326
H            1.96586714580948        2.17645127180398        2.75784376949569
H           -0.49586093935908        2.17646640622371        2.75785862494686
H           -0.49397782064256        0.35983111660682        2.94335511431159
16
 energy: 15.646613422867 xtb: 6.7.1 (edcfbbe)
C           -0.79898298383110        0.92356761745787        0.10397385692768
C            0.00971340106203        0.05443998544586       -0.52377590434592
C            1.45203445971687        0.04574812696014       -0.46184838154413
C            2.26436700990202        0.96601509301814        0.09821635855832
C            1.40206363832594        1.27847233487308        2.37006148844578
C            0.08012824861243        1.23835768664302        2.43829543516604
H           -0.46893063183453        1.78242423132945        0.65379228927639
H           -1.86908504284411        0.80019956468492        0.15944537599420
H           -0.42063673209698       -0.78186319017229       -1.05808303584590
H            1.90138262235469       -0.85305531572203       -0.86219003331301
H            3.31717329088341        0.76121932985393        0.26576703892923
H            1.95965555255143        1.94203911385023        0.38933800559021
H            2.00028452368536        0.38670398956658        2.35964335726475
H            1.93069988398147        2.21700775517070        2.33772667152734
H           -0.52117396805563        2.12627786172695        2.50059916095225
H           -0.47869545452787        0.32692190331220        2.42903586710204
16
 energy: 25.571422669857 xtb: 6.7.1 (edcfbbe)
C           -0.81024470449161        0.87710575712154        0.16401568535003
C            0.01069860564055        0.11069600947728       -0.54856806617727
C            1.44911133249819        0.09720581093656       -0.48071839005889
C            2.26580327820517        0.93979652193443        0.14529359522727
C            1.40981531057613        1.29168540029744        2.33599054968293
C            0.08676353804255        1.23623608903669        2.42626289581232
H           -0.50227083424816        1.66366667206258        0.75897868851499
H           -1.87648372384010        0.73165732124991        0.23586852564786
H           -0.41244319803725       -0.65614799112481       -1.23775298152358
H            1.90168889371562       -0.76267075574198       -0.96980557139087
H            3.30058933461970        0.67265721722955        0.40066025169801
H            2.00246771927403        1.91596613125979        0.46202403899105
H            2.01532710603999        0.40939778039588        2.28648385988922
H            1.91697987305143        2.24287203352036        2.31842381321040
H           -0.52216155400469        2.11249084981659        2.54337313656991
H           -0.47564315915592        0.33186124052690        2.35946751924187
16
 energy: 26.915712795347 xtb: 6.7.1 (edcfbbe)
C           -0.89650301677571        0.44230866233180        0.21911542628818
C            0.02535067619035        0.53721926445686       -0.73688149001064
C            1.45126533493418        0.23191474937490       -0.65689015052958
C            2.37120994017619        0.82168914847781        0.09322799104737
C            1.40611835093553        1.46074114934193        2.51706226606836
C            0.11609196414989        1.24856834059008        2.58413586338268
H           -0.81877775095955       -0.14651246191025        1.12241541397671
H           -1.85937505140040        0.83737966311793        0.04169009844160
H           -0.32677497273917        0.71831020307623       -1.73319114829177
H            1.80917721099941       -0.47333949081586       -1.39236470245837
H            3.33139474186119        0.38745431088026        0.23753233741564
H            2.25613310303675        1.76230130940449        0.57113581270887
H            2.10659015318146        0.66861035619624        2.71487030402981
H            1.78798547201992        2.44099365535148        2.30431855362907
H           -0.66544618990763        1.92369520242925        2.43819922291645
H           -0.33444214781788        0.35314202569571        2.87562175207085
16
 energy: 34.664506413326 xtb: 6.7.1 (edcfbbe)
C           -0.90056893733784        0.38710686067072        0.26409723875947
C            0.03146668410605        0.51954225181513       -0.67365508591628
C            1.45412752926727        0.24111509635090       -0.62187722560273
C            2.38297227743577        0.83608709044092        0.11461348566725
C            1.40480606750219        1.44849110702789        2.47432493974779
C            0.11423133361282        1.24449019690141        2.52191955463988
H           -0.87934649744863       -0.27532653289741        1.10501642789627
H           -1.83498137117342        0.92565267872836        0.12264544766818
H           -0.31924109177875        0.79958628833081       -1.65685191487306
H            1.80682580762896       -0.45797968259158       -1.36750566279068
H            3.33283834916887        0.37129671968821        0.26791014009863
H            2.31862204855576        1.82231311985285        0.52267219286925
H            2.09460085214277        0.66265557016743        2.71322694634181
H            1.79469008591031        2.41930445900967        2.24189280644900
H           -0.67422903649997        1.88912052602509        2.33480728837989
H           -0.36681628320761        0.38102033847850        2.83676097135051
16
 energy: 44.681464983604 xtb: 6.7.1 (edcfbbe)
C           -0.91155680500883        0.37695829968251        0.27837649056360
C            0.03036787263800        0.50877087979883       -0.64605920422243
C            1.45580660478628        0.26650678689473       -0.60065487791509
C            2.39581694275539        0.85051609346548        0.13798222879324
C            1.40291632997437        1.43723421525014        2.43037481207429
C            0.11367356309624        1.23692453730291        2.47504141589782
H           -0.92326045507016       -0.27177708131371        1.08536684847563
H           -1.82635651013485        0.93352570367895        0.17267652478994
H           -0.32706972303540        0.77231673828677       -1.60476204449407
H            1.81738387887405       -0.41380668182884       -1.35727204278720
H            3.32601071531977        0.33118041792967        0.30274523364566
H            2.38779583466589        1.86391284789144        0.49945210584430
H            2.08738678940155        0.65676738034683        2.70729590566178
H            1.79929957820829        2.40483644462257        2.21595114047540
H           -0.67784894325365        1.86288439629631        2.29173594789774
H           -0.39036785533235        0.39772510969427        2.81174706598456
16
 energy: 51.799104791307 xtb: 6.7.1 (edcfbbe)
C           -0.92007465184294        0.38749252282222        0.28796773203990
C            0.02424404521388        0.51025686452197       -0.64849157051764
C            1.45529147230799        0.29090544930965       -0.59035293887003
C            2.40092852105765        0.85495240083116        0.16357726242732
C            1.40910087484694        1.43105602520379        2.41079525976633
C            0.12058515377955        1.22530517972122        2.45118351663336
H           -0.94282936981006       -0.28429540369676        1.10882417306158
H           -1.83315898274843        0.95742967178023        0.15891494707763
H           -0.36491066027565        0.70782815276944       -1.62100689094347
H            1.84751360656502       -0.34639216562296       -1.36658547808601
H            3.31238910054934        0.30568522418367        0.32126901024379
H            2.44209543169253        1.85419402179560        0.51815229471295
H            2.09055939097198        0.65537745279614        2.69729446168886
H            1.79115437138187        2.40633536367322        2.18970050857191
H           -0.68222234864618        1.84227513390591        2.28820822131605
H           -0.39066813715885        0.41607019400436        2.83054704156261
16
 energy: 60.615821966056 xtb: 6.7.1 (edcfbbe)
C           -0.92219777606133        0.39690917837031        0.30199935224497
C            0.02343724027099        0.50038833303418       -0.63722447142444
C            1.45394006888545        0.30903227684135       -0.58000670216953
C            2.40307396626412        0.86169592879994        0.18560495475025
C            1.41141014679012        1.42214643927424        2.38861934796340
C            0.12422179342790        1.21657773864485        2.42700972230709
H           -0.96255059432704       -0.26908631137620        1.11911726536838
H           -1.82659260306066        0.97001116234923        0.16759476382643
H           -0.38271155522768        0.65126124329899       -1.61769672797050
H            1.86025532171824       -0.30530243048908       -1.37120027251475
H            3.29958446301925        0.28421744063525        0.34653696050684
H            2.49044480117404        1.87743429546008        0.50901818286644
H            2.08906442486568        0.64856706195754        2.69592887803092
H            1.78890167036130        2.39775086149849        2.17065295271968
H           -0.68773659362707        1.81962582840692        2.26891684168409
H           -0.40254695658862        0.43324704129277        2.82512650249589
16
 energy: 76.871961353826 xtb: 6.7.1 (edcfbbe)
C           -0.92169789665358        0.42261653375632        0.32560713741747
C            0.02499310784881        0.49317831416324       -0.62455744188709
C            1.45191957210253        0.34032483127870       -0.57123347849667
C            2.40850459502144        0.88049115560263        0.21012889867335
C            1.41877395992846        1.40665035190326        2.36286189279776
C            0.13280798886185        1.20411178782851        2.39374355289247
H           -0.99501598505120       -0.25848368006340        1.14268080883573
H           -1.81348612945108        1.00958595879213        0.16920025942068
H           -0.40606666199382        0.52653042374947       -1.61685966990029
H            1.87776810402427       -0.23834900940820       -1.38339655855478
H            3.27610671124764        0.26016641444728        0.39176415386659
H            2.54919967556952        1.89930592970126        0.50193977629929
H            2.08481064176827        0.63532975784700        2.69019586561880
H            1.78891487777732        2.38133421767238        2.14143989666812
H           -0.69479022800827        1.78157763216937        2.23785595663744
H           -0.42274451510736        0.47010546855885        2.82862650039629
16
 energy: 80.312671525456 xtb: 6.7.1 (edcfbbe)
C           -0.92060193405423        0.42845850640512        0.33223685978675
C            0.02918146543721        0.49145681786816       -0.61947410292333
C            1.45071762101698        0.33916668204467       -0.57028435212664
C            2.40555353571563        0.88169961654835        0.21282858618607
C            1.42244822316763        1.40057577033602        2.35907255773606
C            0.13610288280313        1.20461575061489        2.38796116739165
H           -1.00886855331927       -0.26935460218545        1.13990012397664
H           -1.80432780148423        1.02125974566613        0.17310070658291
H           -0.39854128293896        0.51557680617861       -1.61540321557883
H            1.87621268117247       -0.23026885519376       -1.38742114364757
H            3.27263488518690        0.26892744340564        0.40302552315539
H            2.54362732681356        1.90120696386856        0.48943390617273
H            2.08229044592829        0.62838313041339        2.70192838749423
H            1.79651341248802        2.37168727213009        2.13340832473472
H           -0.69165575314298        1.77204767352958        2.21805206695374
H           -0.43128933690532        0.48903736636879        2.84163215479063
16
 energy: 87.878530897586 xtb: 6.7.1 (edcfbbe)
C           -0.91891481999912        0.43592063137011        0.34477575550420
C            0.03471493735768        0.48651981358355       -0.61267702362045
C            1.44813896847379        0.33904231425527       -0.57082968990249
C            2.39930701446381        0.88280443005646        0.22022999538263
C            1.43022792328391        1.38881546473710        2.36256134001128
C            0.14351981599639        1.20052619188015        2.38722819299773
H           -1.03339073525329       -0.28687145681134        1.12856208281072
H           -1.78717710947671        1.05542880510867        0.18427434798187
H           -0.38915808108269        0.48650474470301       -1.60947075133366
H            1.87743687996152       -0.20530026710495       -1.40213387015174
H            3.26387449103941        0.27793986671448        0.42742876614136
H            2.53785997886583        1.90976438093958        0.45911576231985
H            2.07845527004471        0.62033119935018        2.72363684191551
H            1.80901293493469        2.35366333126732        2.12022937948790
H           -0.69002418383151        1.74311242009135        2.16551532986083
H           -0.44388546689358        0.52627421785777        2.87155109127956
16
 energy: 98.884844832231 xtb: 6.7.1 (edcfbbe)
C           -0.91719343697072        0.45443134580708        0.35459145450937
C            0.03850973791646        0.47500645263849       -0.61360679726992
C            1.44460863007135        0.34795596210075       -0.57596800314099
C            2.39155648641693        0.88384422047570        0.23619174399754
C            1.43913373617795        1.37254221515471        2.35326097394136
C            0.15249465295039        1.19062046110228        2.37921555137491
H           -1.05750975140110       -0.28495641450263        1.11500540335188
H           -1.76993284138669        1.08486213059540        0.18903733178236
H           -0.39353767947418        0.43672778386130       -1.61855194961995
H            1.88764211576087       -0.15550849144981       -1.42876434265114
H            3.24966227963752        0.27684433945377        0.45901990779541
H            2.53598181231690        1.91106898435459        0.43955414565527
H            2.07783676884450        0.61326235086675        2.76046811065907
H            1.82047666339369        2.33204019443591        2.10121315620212
H           -0.68113763733339        1.69880791947647        2.11472312645457
H           -0.45859371903556        0.57692663362788        2.93460773764320
16
 energy: 118.482099465090 xtb: 6.7.1 (edcfbbe)
C           -0.91523460070405        0.47875348310796        0.37303249818042
C            0.04271224347220        0.46276167650217       -0.61482932961143
C            1.43641216785899        0.36936514966728       -0.58514696480984
C            2.37884770457207        0.88271216295995        0.26909949540045
C            1.45285416696154        1.34932651949209        2.33886651258225
C            0.16805039385490        1.16920376657632        2.37536897931842
H           -1.10095170372411       -0.29737615186993        1.08435342792388
H           -1.73989572194209        1.13614779786918        0.20778388872601
H           -0.40364609502771        0.37105884867993       -1.62070093999431
H            1.90079205386235       -0.07063632810531       -1.46697569881218
H            3.22437209742491        0.26289102367116        0.50785853794956
H            2.54734624514957        1.91639946530572        0.40567247305301
H            2.07965032743859        0.61469342367853        2.82325511022144
H            1.83358891412345        2.30017305456895        2.06764609933797
H           -0.66883909269789        1.59979066582646        2.01501880443433
H           -0.47606128273773        0.66921153006808        3.01969465678498
16
 energy: 108.154632850124 xtb: 6.7.1 (edcfbbe)
C           -0.89053275093060        0.51648218473655        0.47608425381528
C            0.07861209486293        0.37936408173698       -0.58577951249880
C            1.39992532208449        0.45644928132045       -0.57818237654758
C            2.29834708886447        0.86150011720312        0.49412957504158
C            1.50173197748740        1.28956477209923        2.10559320976137
C            0.16309674669525        1.12724694896138        2.22777066641185
H           -1.22193415701484       -0.37183593643642        1.02891806585194
H           -1.62937827515398        1.28325658092594        0.31789281929964
H           -0.41599737539736        0.13167438362100       -1.58857363211568
H            1.93047129965596        0.19361203659113       -1.52822184156847
H            3.12028667552857        0.21064461023979        0.69849624322266
H            2.66340288567152        1.95002583095032        0.31133195356593
H            2.07787875123417        0.62372610850884        2.81625687951117
H            1.86498501583343        2.27182783755213        2.06629407289005
H           -0.65890497899435        1.36128521538540        1.90636529706583
H           -0.52199250254184        0.92965203460269        3.03162187697815
16
 energy: 101.256542091060 xtb: 6.7.1 (edcfbbe)
C           -0.84288955211917        0.51639044976184        0.56180136968660
C            0.10946293948140        0.32445346794782       -0.57718277590815
C            1.37738250661783        0.50599017482458       -0.59408037240384
C            2.22398099363001        0.87164501087242        0.65336977395065
C            1.57618184179081        1.23817326062240        1.85507776338142
C            0.11944439403988        1.10617124873414        2.12544652199444
H           -1.24196213243928       -0.39499389553992        0.98984133798239
H           -1.55531692904532        1.31344448434485        0.38515873492190
H           -0.40895506828861        0.10106627683439       -1.53241400935065
H            1.91342188487096        0.26349817490273       -1.49353763577093
H            3.06279665561680        0.20668487804894        0.74685558733176
H            2.69069924440873        1.89645003908119        0.31847851686730
H            2.09469022724420        0.61197179355249        2.75682347096788
H            1.86895958284108        2.31854793467476        2.15546267455065
H           -0.75184070902796        1.29072133165379        1.87920530748777
H           -0.47605806173602        1.04426145768223        2.96969128499574
16
 energy: 100.979921314689 xtb: 6.7.1 (edcfbbe)
C           -0.73785333637865        0.52990230594183        0.76030574919315
C            0.05321808937320        0.33836981388670       -0.51190638180532
C            1.40450147766034        0.46558090474670       -0.50428151730249
C            2.28954607134802        0.94267217931021        0.57224823228081
C            1.61092646182205        1.31256501222337        1.97268311546433
C            0.20971681440639        1.07487551812300        1.72689569210736
H           -1.35782510366485       -0.36406016587971        0.90478438746342
H           -1.43086244276801        1.29670247950708        0.37704913334823
H           -0.47794814449485       -0.01050147850035       -1.42089052312444
H            1.96486252036489        0.38773310063120       -1.49889748405088
H            2.97685227181611        0.13132725198418        0.72983513945727
H            2.87478556317983        1.76200413547534        0.18284615184649
H            1.92698674602631        0.63406826033192        2.65578602035996
H            1.75997924786727        2.27316307969575        2.18184306237998
H           -0.98091260899341        0.92004173294392        2.39063141532863
H           -0.32597580967939        1.52003195757788        2.68106535773873
16
 energy: 40.717231423831 xtb: 6.7.1 (edcfbbe)
C           -0.74788357911797        0.57040227129733        0.69888160045001
C            0.07326190736156        0.34275227350917       -0.53661547927618
C            1.39490738785709        0.49225466119907       -0.53682160305192
C            2.27485171291260        0.93211233693426        0.57798752898972
C            1.57869968961098        1.27660695193414        1.94090266342768
C            0.13570172620948        1.09173909215628        1.74973443994148
H           -1.33098815683230       -0.34967525540506        0.88280390001451
H           -1.48247911347177        1.32856374112553        0.37533974236777
H           -0.45707761665363       -0.01925304195472       -1.41482880995219
H            1.95578035731313        0.34256468081615       -1.48463342475117
H            2.97051427113650        0.11756599693070        0.75098308784224
H            2.86789472843273        1.77151025936936        0.21988287756717
H            1.94164774470586        0.60412844591327        2.67567470138270
H            1.76378323276293        2.29025344724926        2.17916787139244
H           -0.81125777638538        0.72730476955310        2.52047167147534
H           -0.36735869795660        1.69564545737119        2.60106678286559
16
 energy: -26.949404603183 xtb: 6.7.1 (edcfbbe)
C           -0.75518749631390        0.61201854495729        0.62010184492777
C            0.10140624463470        0.34683662206709       -0.55741354841464
C            1.38541662696249        0.51320355475825       -0.57723947310817
C            2.25695767467278        0.92338008507678        0.58644188324005
C            1.52996213099996        1.22540951342341        1.88799282701536
C            0.00365221927230        1.09605251738456        1.84261740896556
H           -1.30292701896718       -0.33217302456652        0.86711025942697
H           -1.52459095496430        1.35493204741279        0.37574345698294
H           -0.43921080663809       -0.02453016792487       -1.39778985475244
H            1.94354451459079        0.30911066143039       -1.46398462122916
H            2.96420794739899        0.10379128339144        0.76821370233171
H            2.86589041125489        1.77769823583912        0.24814520851838
H            1.95849584761539        0.58244892272976        2.70242564360847
H            1.76379561249111        2.31070913563383        2.18467231445589
H           -0.60549100115877        0.54091827536266        2.60737557933858
H           -0.38592413396591        1.87466988102305        2.50558491937796
16
 energy: -41.341667471106 xtb: 6.7.1 (edcfbbe)
C           -0.76251926401064        0.57644666293896        0.67640908260611
C            0.08532352944900        0.36603761134103       -0.54292336294083
C            1.39564461048628        0.49817855331213       -0.55690340536042
C            2.24801600721526        0.91561769128386        0.58773915292757
C            1.52466752509446        1.20640431087218        1.93347472988321
C            0.03789006266064        1.04277013397720        1.84244657734817
H           -1.34665060871670       -0.33377430162300        0.84008181227648
H           -1.49773659909716        1.36106065772396        0.38990063177945
H           -0.44482110551462        0.03729770339141       -1.42476807178958
H            1.95366142862442        0.28015745631208       -1.47823367818986
H            2.98544869913554        0.13275780869080        0.76280932886124
H            2.80195678224190        1.80678591871091        0.28501982851473
H            1.93782714676538        0.55543134609133        2.69751475372092
H            1.72426313449996        2.23248158338661        2.19736092951832
H           -0.36834484813687        0.40773781557185        2.77386291252143
H           -0.51462868281159        2.12908513601775        2.21620632900829
16
 energy: -55.824538167880 xtb: 6.7.1 (edcfbbe)
C           -0.76753927786996        0.61649794928203        0.64861307522194
C            0.08988868091385        0.36272893355139       -0.54423314449721
C            1.39936568148202        0.49950548766712       -0.56936775844854
C            2.24471768485948        0.91538148176532        0.59084497838672
C            1.50035907094739        1.21708019132517        1.89958012236704
C           -0.02773985307986        1.06101714761788        1.90465449618435
H           -1.32952498951747       -0.30170476996082        0.85266080404345
H           -1.51649007230236        1.37569181976756        0.37064638460203
H           -0.44379578813041        0.02109261316812       -1.41786605216693
H            1.95905924741337        0.26423409313341       -1.47195693831798
H            2.97441299378182        0.12113242746045        0.77590855219531
H            2.81913176703037        1.79367221396658        0.28131288373796
H            1.92086950481705        0.57664511223528        2.69144124531911
H            1.73039873502469        2.26672389205916        2.19389656073729
H           -0.31053531633781        0.37132227599262        2.74054650111273
H           -0.48258025114692        2.05345521896775        2.25331584020792
16
 energy: -57.638907008407 xtb: 6.7.1 (edcfbbe)
C           -0.76877656086992        0.61850296887405        0.65250959896995
C            0.09183600167980        0.35423394570797       -0.53606184561707
C            1.40368181701177        0.48250768244700       -0.56213668617980
C            2.24239192116808        0.91327764380658        0.59294649332548
C            1.49421442809178        1.22490004748540        1.90087222758200
C           -0.04458525001631        1.07427255461343        1.93147151155877
H           -1.33427801348577       -0.29532566847800        0.86141804391774
H           -1.50771468217562        1.37302855266625        0.36451911132531
H           -0.44365483644028        0.03551116230467       -1.42078937252721
H            1.95568866290359        0.27068637948443       -1.46850185182481
H            2.98230433662464        0.12758645151477        0.77622805592794
H            2.80913518252845        1.79567396055236        0.27922917140923
H            1.90667080928940        0.58524672876478        2.68288131725436
H            1.73310891121444        2.25023348660175        2.18762037783539
H           -0.29361075392743        0.36963356272549        2.72654543282873
H           -0.46641415571139        2.03450662892807        2.23124596489924
