16
 energy: 0.000000000000 xtb: 6.7.1 (edcfbbe)
C           -0.77705358962067        1.00256531388960       -0.37427006004611
C            0.00803256125606       -0.06812763652329       -0.41521319054704
C            1.46197102642616       -0.06812564178421       -0.41521217663121
C            2.24705442695429        1.00256929403646       -0.37426771729741
C            1.39307066534339        1.26847997603248        2.85079349949180
C            0.07692556821269        1.26848872121441        2.85080241843411
H           -0.38376941678460        2.00369806429917       -0.34107369651756
H           -1.85021732606258        0.91469753527342       -0.37351699803135
H           -0.44762220569676       -1.05037115376285       -0.44792896061413
H            1.91762851892125       -1.05036787095517       -0.44792786529427
H            3.32021831764553        0.91470438222659       -0.37351370286549
H            1.85376766457729        2.00370085525613       -0.34107228876692
H            1.96396422140850        0.35981624292725        2.94334122046779
H            1.96586732819686        2.17645147372874        2.75784402536034
H           -0.49586098536360        2.17646660814987        2.75785888081288
H           -0.49397786647237        0.35983114999089        2.94335538738743
16
 energy: -0.000983452013 xtb: 6.7.1 (edcfbbe)
C           -0.77711573025318        1.00247417499626       -0.37282605836717
C            0.00820315277944       -0.06817548506119       -0.41476440867722
C            1.46173616212978       -0.06804245682545       -0.41475543728194
C            2.24707310181969        1.00263177252711       -0.37294582129877
C            1.39312834260967        1.26863577047451        2.85019291444144
C            0.07693388111373        1.26857056354331        2.85026068836603
H           -0.38383873303784        2.00324948808241       -0.33849368771603
H           -1.84997112963506        0.91447378049569       -0.37325085057878
H           -0.44746197597679       -1.05003285680441       -0.44975551599996
H            1.91748471384210       -1.04986053621547       -0.44968355498102
H            3.31990607404270        0.91419087824613       -0.37276448727773
H            1.85401585144737        2.00364633977097       -0.33937782752304
H            1.96392477046926        0.35947732427477        2.94123613450187
H            1.96536749953935        2.17699844710171        2.75773364676579
H           -0.49549346904651        2.17673251374509        2.75826456602466
H           -0.49389360290228        0.35950759564806        2.94092847494473
