16
 energy: 0.000000000000 xtb: 6.7.1 (edcfbbe)
C           -0.77705358962067        1.00256531388960       -0.37427006004611
C            0.00803256125606       -0.06812763652329       -0.41521319054704
C            1.46197102642616       -0.06812564178421       -0.41521217663121
C            2.24705442695429        1.00256929403646       -0.37426771729741
C            1.39307066534339        1.26847997603248        2.85079349949180
C            0.07692556821269        1.26848872121441        2.85080241843411
H           -0.38376941678460        2.00369806429917       -0.34107369651756
H           -1.85021732606258        0.91469753527342       -0.37351699803135
H           -0.44762220569676       -1.05037115376285       -0.44792896061413
H            1.91762851892125       -1.05036787095517       -0.44792786529427
H            3.32021831764553        0.91470438222659       -0.37351370286549
H            1.85376766457729        2.00370085525613       -0.34107228876692
H            1.96396422140850        0.35981624292725        2.94334122046779
H            1.96586732819686        2.17645147372874        2.75784402536034
H           -0.49586098536360        2.17646660814987        2.75785888081288
H           -0.49397786647237        0.35983114999089        2.94335538738743
16
 energy: -0.000875755117 xtb: 6.7.1 (edcfbbe)
C           -0.77735116767244        1.00230596265851       -0.37164389554266
C            0.00816581926186       -0.06806371643608       -0.41491788911793
C            1.46169265378094       -0.06776680052929       -0.41489839207615
C            2.24725392234747        1.00265572570665       -0.37191525302946
C            1.39316406436820        1.26863313695122        2.84906431853172
C            0.07698114866431        1.26847261557443        2.84919941733085
H           -0.38425484254530        2.00290893768506       -0.33630444151514
H           -1.85015692156073        0.91436845125057       -0.37227485283564
H           -0.44742418869671       -1.04984897239103       -0.45103395117808
H            1.91746724938129       -1.04946515551644       -0.45087369654718
H            3.32000905393421        0.91372385374563       -0.37118525323394
H            1.85465554658642        2.00379857086201       -0.33829582014643
H            1.96402982652637        0.35959546949983        2.94062072807733
H            1.96528375869932        2.17707029010807        2.75669006522906
H           -0.49557682046840        2.17644817990281        2.75786097789379
H           -0.49394019366536        0.35964076492754        2.93990671350273
16
 energy: -0.002025361685 xtb: 6.7.1 (edcfbbe)
C           -0.77775645505752        1.00208287251041       -0.36813987004630
C            0.00813452425967       -0.06787802666563       -0.41572511232700
C            1.46155439911994       -0.06731745791835       -0.41538574517421
C            2.24752735088160        1.00269975514248       -0.36878172106097
C            1.39321264489528        1.26874705209365        2.84576788627006
C            0.07701666615095        1.26835408227609        2.84598295433612
H           -0.38475474812636        2.00257741479272       -0.32757510862115
H           -1.85055631699379        0.91377445614023       -0.36929317023239
H           -0.44733428271506       -1.04959952022338       -0.45569460246922
H            1.91746320577692       -1.04885297777900       -0.45430383108427
H            3.32021136753428        0.91269115638092       -0.36734589991871
H            1.85562700094866        2.00402567131868       -0.33206673450879
H            1.96418885382615        0.35963354580991        2.93541202524184
H            1.96484781724504        2.17766142533243        2.75531608455630
H           -0.49554907976914        2.17658924878341        2.75711250127912
H           -0.49383403903516        0.35928861600489        2.93471911910245
16
 energy: -0.003452633958 xtb: 6.7.1 (edcfbbe)
C           -0.77824756611845        1.00179780432916       -0.36147602323370
C            0.00807517120270       -0.06754258408655       -0.41680007947318
C            1.46145350710191       -0.06677710345186       -0.41584008870567
C            2.24791452101132        1.00264925304266       -0.36272990731345
C            1.39322447417680        1.26898269345357        2.84002662383186
C            0.07701317517644        1.26819906692640        2.84070358171725
H           -0.38558120680295        2.00211227399489       -0.31319044515743
H           -1.85101047598796        0.91303053168738       -0.36390802489064
H           -0.44714801057508       -1.04911647669378       -0.46408264318489
H            1.91736472334530       -1.04811556790010       -0.46008262863350
H            3.32051552656630        0.91157555190072       -0.36100914676436
H            1.85688922889770        2.00414367918648       -0.32138561658432
H            1.96450943122153        0.35971630799104        2.92609406994715
H            1.96438370764412        2.17850266238669        2.75264417072210
H           -0.49572415416198        2.17665172334701        2.75517249528049
H           -0.49363314375623        0.35866749788577        2.92586243778516
16
 energy: -0.004456950539 xtb: 6.7.1 (edcfbbe)
C           -0.77884099766156        1.00142432129838       -0.35023546063011
C            0.00802835895719       -0.06694402470639       -0.41853470788250
C            1.46137009120539       -0.06602224131295       -0.41648093951147
C            2.24843296391610        1.00251198711440       -0.35247109688297
C            1.39321577909657        1.26931431690334        2.82972602360926
C            0.07698595324137        1.26788144431270        2.83093358135193
H           -0.38673309832040        2.00138244150772       -0.28852977162697
H           -1.85156417878454        0.91202173887811       -0.35413237305421
H           -0.44685268997666       -1.04818029027703       -0.47815699260031
H            1.91716672241834       -1.04706484204217       -0.46953204853611
H            3.32094991757977        0.91022024435745       -0.34991194110975
H            1.85846173288680        2.00409304477732       -0.30266524572967
H            1.96501042170990        0.35982768872234        2.91011502453222
H            1.96377925692942        2.17973042964774        2.74757808415753
H           -0.49615243989494        2.17666012440495        2.75137480816521
H           -0.49325888436122        0.35762093041356        2.91092183109075
16
 energy: -0.002789073893 xtb: 6.7.1 (edcfbbe)
C           -0.77931308340703        1.00106129006559       -0.33720868324244
C            0.00801686935616       -0.06621791992667       -0.42024756432823
C            1.46132008367060       -0.06523610370285       -0.41697637501611
C            2.24888312068112        1.00234016101645       -0.34052697014479
C            1.39319844581095        1.26961477449160        2.81778750661679
C            0.07694722819256        1.26750081233300        2.81974283059706
H           -0.38776164888756        2.00049368794924       -0.26074456566965
H           -1.85200139874741        0.91110777393716       -0.34275069701571
H           -0.44657533720360       -1.04693689256515       -0.49377347610504
H            1.91696853880005       -1.04591073019942       -0.47996684208201
H            3.32133235171280        0.90905664981677       -0.33715356304056
H            1.85977571249088        2.00385115277159       -0.28131476431600
H            1.96552327744946        0.35988078089624        2.89188513360917
H            1.96319258096455        2.18091113951465        2.74104369998235
H           -0.49667927791011        2.17653616385661        2.74628684787270
H           -0.49282855403185        0.35642457374464        2.89391625762530
16
 energy: 0.006686454962 xtb: 6.7.1 (edcfbbe)
C           -0.77983451336751        1.00056985631327       -0.31823089360212
C            0.00802828816750       -0.06508442187081       -0.42244160532037
C            1.46126813025147       -0.06409091939445       -0.41744127782104
C            2.24940822395753        1.00209944477207       -0.32306985753635
C            1.39317284941250        1.26992771690698        2.79999751740297
C            0.07688837295962        1.26686373174599        2.80302742316139
H           -0.38899374003374        1.99906190092358       -0.22066747496363
H           -1.85247916964445        0.90996976007366       -0.32591600970284
H           -0.44623260642417       -1.04488428666089       -0.51585516155699
H            1.91672441447938       -1.04415683247622       -0.49471450072417
H            3.32177518112885        0.90762366484749       -0.31839109066185
H            1.86131277466379        2.00335212560418       -0.25025241570019
H            1.96621662781493        0.35988949942068        2.86551510444542
H            1.96240521922249        2.18241119452670        2.73080853662891
H           -0.49744765604321        2.17622399864124        2.73823330800366
H           -0.49221348760331        0.35470088062597        2.86939717329002
16
 energy: 0.040075424432 xtb: 6.7.1 (edcfbbe)
C           -0.78037285933761        0.99987080474130       -0.29121628321366
C            0.00807530173379       -0.06328149872202       -0.42507057492881
C            1.46120198016784       -0.06236093755832       -0.41769682513078
C            2.24998404723607        1.00176199568233       -0.29813800940641
C            1.39314196953702        1.27019719115708        2.77428536118662
C            0.07680283468250        1.26584129057047        2.77889742255189
H           -0.39043821551898        1.99667583018503       -0.16450810114965
H           -1.85296337095250        0.90854836907954       -0.30164401227418
H           -0.44581217981950       -1.04145457908185       -0.54613827253961
H            1.91643273942817       -1.04139792001526       -0.51496843871530
H            3.32224686885961        0.90582278969510       -0.29146491315481
H            1.86308765342158        2.00241842072008       -0.20629292206056
H            1.96714220343922        0.35980771597015        2.82820866278629
H            1.96135801172488        2.18421093628617        2.71515788339638
H           -0.49852049286478        2.17554954608075        2.72579453846931
H           -0.49136758279551        0.35226735920887        2.83479325952607
16
 energy: 0.140252568038 xtb: 6.7.1 (edcfbbe)
C           -0.78085471404830        0.99884061056639       -0.25448484088962
C            0.00817710215914       -0.06041155665400       -0.42784109164078
C            1.46109848674350       -0.05970802443553       -0.41739167769380
C            2.25054243499771        1.00128879502317       -0.26410706561144
C            1.39311814424978        1.27028551890800        2.73860448803349
C            0.07668616771769        1.26423318653341        2.74546033643346
H           -0.39206911567544        1.99269157953968       -0.08971809513872
H           -1.85337964014196        0.90676877090781       -0.26804940600864
H           -0.44530461195960       -1.03576384738498       -0.58540251649265
H            1.91609640363041       -1.03701370941626       -0.54133833302703
H            3.32266960751453        0.90352476822424       -0.25437682772376
H            1.86506928268907        2.00077184167715       -0.14695600281353
H            1.96833988803033        0.35958142104180        2.77764039902847
H            1.96001321907704        2.18617607135703        2.69237242576940
H           -0.49994455807692        2.17424536067005        2.70758471989086
H           -0.49025918796504        0.34896652744146        2.78800226322702
16
 energy: 0.401859222048 xtb: 6.7.1 (edcfbbe)
C           -0.78115521992782        0.99731251265131       -0.20787588906347
C            0.00835883234527       -0.05594965713778       -0.43002308496230
C            1.46091589490047       -0.05568417896569       -0.41594608404689
C            2.25095012510115        1.00063377495463       -0.22066147489681
C            1.39313400421626        1.26997538231427        2.69207601918084
C            0.07654010114691        1.26180220098453        2.70195812702826
H           -0.39380817730493        1.98625940555347        0.00241534964901
H           -1.85360616339115        0.90453358638388       -0.22418806527579
H           -0.44470597323972       -1.02662873335936       -0.63200838077013
H            1.91572650629059       -1.03016399858178       -0.57296223672426
H            3.32289604066639        0.90057330789549       -0.20623727393739
H            1.86715531891172        1.99803642802477       -0.07232864046041
H            1.96982541107484        0.35914509634872        2.71316514719652
H            1.95838249226668        2.18798829649784        2.66134922442930
H           -0.50171184762791        2.17192933056972        2.68277938471815
H           -0.48889843648665        0.34471455986532        2.72848665327806
16
 energy: 0.982399035942 xtb: 6.7.1 (edcfbbe)
C           -0.78114535935529        0.99513172756483       -0.15368849386629
C            0.00864927159220       -0.04937404506766       -0.43049564833345
C            1.46059594065613       -0.04981747014902       -0.41265987650926
C            2.25103219204943        0.99977146626942       -0.16953038262553
C            1.39325687383223        1.26900232371248        2.63580019186066
C            0.07638055922178        1.25831029497458        2.64955149037217
H           -0.39555541518565        1.97662801722582        0.10512896810333
H           -1.85352243411967        0.90168803034653       -0.17066550552217
H           -0.44401652951222       -1.01289348272136       -0.68112966479098
H            1.91534410659683       -1.01995121894272       -0.60704654660416
H            3.32272767133387        0.89678788022744       -0.14788920742577
H            1.86919763436927        1.99385167871812        0.01361409650694
H            1.97160131284766        0.35844580885581        2.63672032405033
H            1.95653489774285        2.18919825629378        2.62236416430667
H           -0.50373926711215        2.16816281270855        2.65182474768017
H           -0.48734254601489        0.33953523398270        2.65810011813995
16
 energy: 2.067824486108 xtb: 6.7.1 (edcfbbe)
C           -0.78081657872750        0.99227175310353       -0.09654239612228
C            0.00907677692282       -0.04043784256252       -0.42833203100068
C            1.46007646549694       -0.04180160986799       -0.40713301783759
C            2.25066752202285        0.99874291723893       -0.11427055456755
C            1.39359768098943        1.26718514309245        2.57304577328215
C            0.07624601973629        1.25360952323406        2.59151173799592
H           -0.39730371913043        1.96374733726588        0.20746643262665
H           -1.85312709853892        0.89793069536553       -0.10951875518069
H           -0.44322922983963       -0.99412403438308       -0.72605129023295
H            1.91497537186957       -1.00581033830408       -0.63950536442498
H            3.32199299461241        0.89193741023488       -0.08157058257187
H            1.87112179537421        1.98813366940225        0.10339153833349
H            1.97370560822219        0.35751082524230        2.55259059934580
H            1.95456074855946        2.18943428900111        2.57733631811754
H           -0.50587960864043        2.16259205093592        2.61671771436400
H           -0.48566583998667        0.33355552500010        2.58086265321561
16
 energy: 5.012398283492 xtb: 6.7.1 (edcfbbe)
C           -0.77822832952441        0.97933572504750       -0.01380998972254
C            0.01000769491493       -0.02548123489892       -0.44917060995889
C            1.45882217376408       -0.02974739533358       -0.41921286425449
C            2.24848734529402        0.99019744010523       -0.03951305555270
C            1.39420188185334        1.27176715796222        2.49888293340009
C            0.07575298709121        1.25254606611024        2.52653831346456
H           -0.39973009129112        1.92489324393231        0.37339923138488
H           -1.85068541080006        0.88634133349548       -0.03100760590496
H           -0.44122755487878       -0.95469674307924       -0.83859200230530
H            1.91400693716791       -0.97944700191426       -0.71960229080727
H            3.31936669160923        0.87696016451624        0.00732447331284
H            1.87393446590995        1.96819033820811        0.23531341579080
H            1.97737837814119        0.36398283253801        2.42989193586596
H            1.95066383691380        2.19891310570112        2.55473389614267
H           -0.51025586739031        2.16042954473761        2.61318972575920
H           -0.48249622983207        0.33029273687113        2.47163326872764
16
 energy: 11.748084933367 xtb: 6.7.1 (edcfbbe)
C           -0.77570440608091        0.95955852569129        0.05812077506542
C            0.01032174463171       -0.00565903185009       -0.48061759494636
C            1.45745007132155       -0.01518847602767       -0.43809546226729
C            2.24642409246085        0.97746391827610        0.02786637485534
C            1.39494501076514        1.28102619667897        2.43940377848815
C            0.07565173728701        1.25508352679667        2.47811333603048
H           -0.40483206127474        1.86881276486591        0.57066863222818
H           -1.84824499544240        0.86954369518118        0.04848557666371
H           -0.43812360033474       -0.89947184098105       -0.97672146399918
H            1.91237196571740       -0.94598500212144       -0.81456544609179
H            3.31680509340278        0.85583412501816        0.09961290336319
H            1.87871308587115        1.94131955797398        0.38402624375875
H            1.98098183387058        0.37734656692572        2.30001893431772
H            1.94538537235564        2.20787893794389        2.53513968060843
H           -0.51307760988474        2.15484618493004        2.61364986485348
H           -0.47906842572307        0.33206766469748        2.35489264241420
16
 energy: 12.770105329257 xtb: 6.7.1 (edcfbbe)
C           -0.77780497742036        0.94341842199352        0.07652542213043
C            0.00987749865653        0.00305134714638       -0.52050233659116
C            1.45762686510024       -0.01083129993400       -0.47448512123441
C            2.24870326754839        0.96547053247571        0.03213075983704
C            1.39556782774113        1.29322650241536        2.45886206382854
C            0.07658839169351        1.26280686676816        2.50188311505010
H           -0.41658882459645        1.82559165946566        0.61198109504442
H           -1.85022639563536        0.85473798951800        0.05088782276529
H           -0.43430675795428       -0.86830908559884       -1.07598962161345
H            1.91058364566166       -0.93124422458432       -0.88996714101186
H            3.31829286684860        0.83755641975001        0.10958455346857
H            1.88753170946936        1.91933495933992        0.42099205303373
H            1.98155809376589        0.39535778029150        2.28836294705459
H            1.94312062637946        2.22162847238789        2.58577057579777
H           -0.51526786129167        2.15975488221083        2.67671027078542
H           -0.47525706702344        0.34292609035335        2.34725231699745
16
 energy: 11.740444485092 xtb: 6.7.1 (edcfbbe)
C           -0.78670757514511        0.91073224511354        0.05038677571548
C            0.00678189512194        0.02313081690369       -0.59711352079317
C            1.45878893923538       -0.00025627041569       -0.53378064908798
C            2.25641019341334        0.94329433730245        0.01212585718217
C            1.39699496776779        1.31720360486838        2.52353958978383
C            0.08036843401088        1.27698468899847        2.57413595011875
H           -0.44550762862904        1.73692528098021        0.68337440449504
H           -1.85868765350796        0.82239202438050        0.02593840882025
H           -0.42525064191120       -0.79995693358931       -1.22985572913917
H            1.90624707679266       -0.89960885287892       -1.00625087592641
H            3.32386069381949        0.80081504371288        0.10438997178551
H            1.90881469290182        1.87604656965037        0.46575630081870
H            1.98153470906387        0.43497787305091        2.29661360043997
H            1.93914720025453        2.24283116439631        2.67900402619281
H           -0.51735575734051        2.16108503300306        2.78738713978603
H           -0.46544063690477        0.36788068852226        2.36434752515069
16
 energy: 7.407608333951 xtb: 6.7.1 (edcfbbe)
C           -0.80738143720669        0.87305248257788       -0.01415449579993
C           -0.00032804141497        0.05389110307578       -0.67899684519954
C            1.46424383571377        0.01625685060050       -0.59609509765492
C            2.27338858159024        0.92031505892775       -0.03356117740796
C            1.39767233279695        1.34388707156509        2.62856801303411
C            0.08728727746909        1.28874356581201        2.68491978643688
H           -0.48661579304187        1.61443612615894        0.71269415516464
H           -1.87979996372968        0.78585733056964       -0.05838971246411
H           -0.41038430959059       -0.69943398452812       -1.34078099724374
H            1.90154392300784       -0.85357859105334       -1.08885461159331
H            3.33620993996098        0.75672945794199        0.05218607894923
H            1.93792867433782        1.81978258112900        0.47322590690803
H            1.97748839767009        0.49008780852995        2.35401113479912
H            1.93602297477863        2.25681523795512        2.77327056140404
H           -0.51812307558434        2.14496180985640        2.89103290891749
H           -0.44915440781445        0.40267340488053        2.44092316709258
16
 energy: 6.591627100369 xtb: 6.7.1 (edcfbbe)
C           -0.82410324108223        0.82769623827220       -0.04163646559411
C           -0.00128988474375        0.08800099589675       -0.75862923367554
C            1.46635294908034        0.03931613999343       -0.65238356269230
C            2.28352702497352        0.89196000056112       -0.04844116561707
C            1.40118920937761        1.37605407984544        2.70251584158069
C            0.09115151588277        1.30104525668878        2.77486031871129
H           -0.51784924122846        1.48343742842340        0.77722629282184
H           -1.89727111213012        0.73928314538339       -0.13584019559399
H           -0.39813093961137       -0.59096142374873       -1.51809116798240
H            1.89828148959478       -0.79450315966725       -1.18711164740615
H            3.34263904363232        0.70090752208408        0.02028514405916
H            1.96005481502171        1.75672863120264        0.47285655914789
H            1.98479401368354        0.54260517908358        2.36094894249691
H            1.93235067818424        2.29098934180095        2.90266193876666
H           -0.52785066239897        2.13975678065435        3.05173029389955
H           -0.43384674929336        0.42216115752504        2.47904688242030
16
 energy: 6.154436196913 xtb: 6.7.1 (edcfbbe)
C           -0.84441898440270        0.77748444913438       -0.04238073751847
C            0.00415186980770        0.12866541035773       -0.84923903403580
C            1.46668973065612        0.06673988385481       -0.73092103340144
C            2.29369566490045        0.86082844965961       -0.06389704859113
C            1.40520546287268        1.41145447797075        2.76127089191060
C            0.09243898216521        1.31188963731219        2.86023898113413
H           -0.54775862071839        1.34138459522978        0.79936829554145
H           -1.91620149029589        0.68970309071976       -0.20132704637281
H           -0.38133685595354       -0.46449884735976       -1.66782039037409
H            1.89551036638512       -0.72973941174301       -1.30025804295620
H            3.34896454658869        0.63311991283497       -0.00789374566037
H            1.97851706574266        1.69752397374937        0.51634413084335
H            1.99680941761235        0.60078089902882        2.37276334284530
H            1.92847908333111        2.32791719219689        3.01761475310317
H           -0.54053377773810        2.12761666734508        3.20432156682467
H           -0.42021355201110        0.43360693370778        2.53181389205049
16
 energy: 5.899839413266 xtb: 6.7.1 (edcfbbe)
C           -0.85760623480520        0.73003784170991       -0.08830592984595
C            0.00582417492138        0.16329296540891       -0.92693001957938
C            1.46376076316279        0.08862737787685       -0.79563462921379
C            2.29769211333105        0.83362783530053       -0.06069962005463
C            1.40743428737339        1.44521820657957        2.82467067491362
C            0.09653411010301        1.32370174282143        2.94029834663342
H           -0.57090249982006        1.20642505372965        0.85101630198309
H           -1.92492177635978        0.64784558903756       -0.25746211698067
H           -0.37049399030914       -0.35087435479318       -1.81573823969938
H            1.89480877315562       -0.67681052532196       -1.43096133630182
H            3.34855610352392        0.58057388933027       -0.02817541117415
H            1.99103651274886        1.64579312113014        0.55640404501216
H            2.00367877859909        0.65982848717835        2.40521615298133
H            1.92333343389596        2.35325080170301        3.10485535102688
H           -0.54288592212422        2.11163252061046        3.32310988635638
H           -0.40584971845452        0.45230676169769        2.59833531928579
16
 energy: 8.580338498605 xtb: 6.7.1 (edcfbbe)
C           -0.86355076758829        0.67606826395123       -0.14074058143681
C            0.02137783790599        0.20803917251684       -0.93926625233558
C            1.45456875780592        0.11687700023132       -0.82564297550288
C            2.28477834453183        0.80473159511013       -0.05925035964209
C            1.40622665213421        1.48387980049630        2.87729808694995
C            0.09863626828803        1.33068906361577        3.00855819024228
H           -0.56670526526924        1.04986931599099        0.79361237527311
H           -1.91711438111979        0.61893607970851       -0.31741368465917
H           -0.36275497957289       -0.20462915486331       -1.89566682539210
H            1.90473713689009       -0.61562583633289       -1.53728177657380
H            3.32921324088977        0.52850957303023       -0.06510753514695
H            1.97130775422135        1.60078680983659        0.57027698061256
H            2.01617378108913        0.72087582213712        2.47534182321316
H            1.91708141833811        2.37491086299671        3.14656753408986
H           -0.53725671683133        2.07875649220838        3.39800218520278
H           -0.39672017277094        0.44180245336529        2.71071159044864
16
 energy: 4.315870315092 xtb: 6.7.1 (edcfbbe)
C           -0.87362707516430        0.65522834871243       -0.12014365106398
C            0.01931290707165        0.20887429183838       -0.98853547596555
C            1.45986655697076        0.11384045810796       -0.86703888671969
C            2.28308670793308        0.78445986062161       -0.06784077074339
C            1.40829360464302        1.49491369381260        2.88470502672382
C            0.10587413838272        1.34069857465039        3.01274106450583
H           -0.56848052429233        1.02799486273491        0.83492665134760
H           -1.93100327326357        0.64036411543736       -0.31088787329037
H           -0.36124741683277       -0.18757674268043       -1.93621566188504
H            1.90057297939054       -0.62085861794294       -1.54642852648666
H            3.33062121706537        0.52827388378685       -0.06059431680258
H            1.96483342913942        1.58360460590484        0.57022542096694
H            2.02894185779718        0.71151451035533        2.49815762309897
H            1.91485337115781        2.40281581463692        3.15323606058563
H           -0.53543398244127        2.09885837978059        3.41249877752630
H           -0.38646558861543        0.43147127424239        2.73119331354532
16
 energy: 3.444408858961 xtb: 6.7.1 (edcfbbe)
C           -0.86856570044010        0.64170701935010       -0.11789354422825
C            0.01000388168849        0.21812554555498       -1.03333284634911
C            1.45349475053045        0.10268079263420       -0.90083629035707
C            2.27198776148989        0.76070408285204       -0.08315472274324
C            1.41693263356268        1.50895613029097        2.90867018356751
C            0.11734472658126        1.34938903430537        3.04026880940742
H           -0.55914545070092        0.97569324259273        0.85988576698029
H           -1.92871312798148        0.65074646634818       -0.30915816884361
H           -0.37240567298285       -0.14576097033902       -1.98197950603193
H            1.88828693268740       -0.62150971023080       -1.57469240735922
H            3.32204926615159        0.51711306205511       -0.05705675887602
H            1.95050036902719        1.55889913822039        0.56145740992982
H            2.04545458819038        0.71445224190248        2.53699333800285
H            1.91344332102072        2.43618909200298        3.15379903472237
H           -0.53068466831827        2.12192623815949        3.41993412347275
H           -0.36998470156462        0.42516590829990        2.77709435404884
16
 energy: 2.855671237881 xtb: 6.7.1 (edcfbbe)
C           -0.85744063965330        0.62246099342478       -0.12240671457409
C           -0.00365465286151        0.22666366299555       -1.08279400661110
C            1.44113005689320        0.08692601773405       -0.94348045946449
C            2.25157924845190        0.73118696372999       -0.10772223150530
C            1.43123598725086        1.53311476874925        2.94037025423936
C            0.13397206833961        1.36426415871966        3.07987314481466
H           -0.54248327182212        0.89783307211142        0.87909741478077
H           -1.91996589069561        0.66310806003366       -0.31095589488705
H           -0.39138767103189       -0.07583966049807       -2.04683907714180
H            1.87237286363167       -0.62924227899296       -1.61975991793298
H            3.30380070116628        0.49845767690428       -0.05703407728201
H            1.92168790841624        1.51957759079470        0.54945411768384
H            2.07054710138236        0.72669367260386        2.59982979928189
H            1.91403856214811        2.47954082938895        3.15514777230341
H           -0.52140009370635        2.15062438127472        3.43024503616520
H           -0.34403336896772        0.41910740502510        2.85697361547345
16
 energy: 2.156443254966 xtb: 6.7.1 (edcfbbe)
C           -0.84460080085918        0.60065732275257       -0.13597808716770
C           -0.01835009728748        0.23394083114692       -1.12805277808734
C            1.42529376991223        0.06680803660456       -0.98690987119439
C            2.22449192315341        0.69604780242394       -0.13227308369832
C            1.45011697231618        1.56155213524982        2.98110783460463
C            0.15496334664687        1.38097656581165        3.13146410686513
H           -0.52322276285753        0.81006947489630        0.88266236732748
H           -1.90799012670305        0.67582766977585       -0.31754953723451
H           -0.41280310202493        0.00806908149157       -2.11459371697162
H            1.85597498896146       -0.64022128961726       -1.67605477023614
H            3.27895567170601        0.47676331907829       -0.06466560257015
H            1.88034054362129        1.46999006406229        0.53700742562756
H            2.10025885345212        0.74979171642580        2.67301229769971
H            1.91694032099531        2.52589753884551        3.15535696478550
H           -0.50812361823249        2.17919209034656        3.44333066071244
H           -0.31224697385859        0.41911495470441        2.95213456488194
16
 energy: 1.320759526279 xtb: 6.7.1 (edcfbbe)
C           -0.83487494601423        0.57897256928883       -0.15848015972831
C           -0.03089111313562        0.24393290691547       -1.16478821809316
C            1.40935373977115        0.04955043244360       -1.02903266183830
C            2.19594027426404        0.66111510726505       -0.15358417704501
C            1.47001740222464        1.59224954997122        3.02037465986003
C            0.17697277340111        1.39955347268033        3.18259232775411
H           -0.50546076232511        0.72823905427474        0.86344327614807
H           -1.89691262548483        0.68690922255967       -0.32732305746233
H           -0.43096536966336        0.08360442829745       -2.16433359762791
H            1.84119827730310       -0.64880320277519       -1.73568493047521
H            3.25104869273344        0.45163915561516       -0.07812678745676
H            1.83160854941431        1.41313874333288        0.52992204590753
H            2.13118438891194        0.78118543440817        2.74704619886773
H            1.92240572379220        2.56567130534712        3.15791884496387
H           -0.49197324439999        2.20039038486619        3.46224622651331
H           -0.27865285185127        0.42712874950795        3.04780878505696
16
 energy: 0.835881057153 xtb: 6.7.1 (edcfbbe)
C           -0.83264751204241        0.55649872446594       -0.17995458886587
C           -0.04004549267167        0.26172371074490       -1.19934552990465
C            1.39633935858691        0.04069085113379       -1.07227873374451
C            2.17227898980449        0.62676277117230       -0.16976278551636
C            1.48859059710632        1.61996894677895        3.06061125324106
C            0.19785542694721        1.41694293255026        3.23097619162710
H           -0.48949479527645        0.64981221569145        0.83859208277166
H           -1.89244662985904        0.69757058346243       -0.33284586669051
H           -0.44563460564607        0.14231349173656       -2.19753672537426
H            1.82765389788316       -0.64739166692088       -1.79437661290848
H            3.22645565850936        0.42061479060065       -0.09394085404528
H            1.78770829329126        1.35448897562607        0.52750567372628
H            2.16076476751550        0.81438052553736        2.81595578938198
H            1.92755348285902        2.60197657347236        3.15685092827093
H           -0.47861267687008        2.21839576242243        3.47766872021322
H           -0.24631985119611        0.43972812552391        3.13187983316272
16
 energy: 0.637649057067 xtb: 6.7.1 (edcfbbe)
C           -0.83603589677614        0.53043407183744       -0.19610561611590
C           -0.04901686203670        0.27601070371545       -1.23119753569229
C            1.38423835751323        0.03324530833666       -1.11497855698939
C            2.15329251125060        0.59137346393801       -0.18826029717683
C            1.50522860763390        1.65183888038528        3.09454135403902
C            0.21721325979023        1.43868667981629        3.27068793663423
H           -0.47474200652605        0.56566563711780        0.82012467300256
H           -1.89292445190980        0.70502083698907       -0.33116855822476
H           -0.46069065524532        0.20817395292803       -2.23527472845197
H            1.81269508579270       -0.63554701565427       -1.85599644672894
H            3.20574618452967        0.38218143620420       -0.11146822214882
H            1.75242787809974        1.29365355082611        0.52509278606262
H            2.19287273570486        0.84491177208217        2.89163078068840
H            1.93149384923205        2.64056027159339        3.15531192998543
H           -0.46880660180781        2.23951406621631        3.48761347684842
H           -0.21299308630386        0.44875369766637        3.21944579961366
16
 energy: 0.514091901772 xtb: 6.7.1 (edcfbbe)
C           -0.84745744590720        0.51053774791550       -0.21292436067669
C           -0.05627397780691        0.29078187810176       -1.25304551699256
C            1.37381101715489        0.03308233605824       -1.14757290033903
C            2.14269185759643        0.56054914545877       -0.20275475570968
C            1.52035563540673        1.67538791538776        3.13077493525748
C            0.23493101101369        1.45338356638738        3.31111153598490
H           -0.47053493429597        0.49825953918955        0.79624400235319
H           -1.89941469559479        0.70137430857279       -0.32615329721234
H           -0.46990323525706        0.25548621250477       -2.25426340410373
H            1.79842615007120       -0.61188032727111       -1.90979867832672
H            3.19266639980109        0.34071600398555       -0.13011971738802
H            1.73479990850103        1.23796573453573        0.52837023349126
H            2.21896881090661        0.87541286824414        2.95179884871168
H            1.93472256412227        2.67342709979712        3.14714670112660
H           -0.46419523692072        2.25677983393063        3.48740816547996
H           -0.18359491985008        0.46321345119959        3.28377698368955
16
 energy: 0.482037950404 xtb: 6.7.1 (edcfbbe)
C           -0.85853162087661        0.48898463915713       -0.22164156737000
C           -0.06415863776416        0.29950571358476       -1.26864925937757
C            1.36420590974036        0.03404086822769       -1.17214371625372
C            2.13710394463366        0.53256579540086       -0.21403547349290
C            1.53074312819908        1.70104516774848        3.14834901459700
C            0.24691011976704        1.47266539043350        3.32907381864550
H           -0.47102151817947        0.44064339114851        0.78253812344681
H           -1.90801379120206        0.69775265670003       -0.32226016542785
H           -0.47814468433715        0.29852519128304       -2.27161889376612
H            1.78492605382045       -0.58758236268149       -1.95449285742959
H            3.18663540734075        0.30700803204573       -0.15148487239234
H            1.73100365229554        1.19031831603287        0.53540623784414
H            2.24082607238116        0.89958001521476        3.00441074846946
H            1.93743987785433        2.69813430190807        3.14634530484572
H           -0.46002305641996        2.26968050780494        3.48823549749447
H           -0.15990194831183        0.47160968998918        3.34196683551315
16
 energy: 0.451220814869 xtb: 6.7.1 (edcfbbe)
C           -0.86798714990655        0.47317834811682       -0.22595916423110
C           -0.07149849551213        0.30355415575137       -1.27630404641739
C            1.35643538282695        0.03601098614939       -1.18655819561089
C            2.13620425119890        0.51109996981798       -0.22240043312379
C            1.53907054842096        1.71692983834807        3.16624244092101
C            0.25618182913040        1.48344252073656        3.34702084276279
H           -0.47739787120637        0.39865793384316        0.77708624668487
H           -1.91652173324658        0.69176145133816       -0.32087895613108
H           -0.48408167722413        0.33080952528550       -2.28239289443678
H            1.77396261595432       -0.56545061682624       -1.98556475984356
H            3.18647887642716        0.28298514775497       -0.17298131021267
H            1.73822872626558        1.15284233061672        0.54636264102763
H            2.25416554796528        0.91878392464456        3.03786654465819
H            1.93892947443413        2.71838396623934        3.14059163652688
H           -0.45846998717292        2.27926932787210        3.48363501620700
H           -0.14370142941392        0.48221850430953        3.37423316656530
16
 energy: 0.403184077711 xtb: 6.7.1 (edcfbbe)
C           -0.88613084872189        0.45550636323871       -0.22970469796782
C           -0.08247560617987        0.30939234199930       -1.27634146733985
C            1.34593356206172        0.04572204326058       -1.19690150601846
C            2.14318447995323        0.48228454340175       -0.23017088784298
C            1.54783647023170        1.73911519256519        3.17993115263244
C            0.26577091828294        1.49901534633820        3.35861776202987
H           -0.50145556643080        0.35686986548575        0.76963333710923
H           -1.93337924713272        0.66936588692665       -0.31960514453694
H           -0.48901651228610        0.35843152613806       -2.27755805362912
H            1.75853075544573       -0.52295323595004       -2.02159117760622
H            3.19561204381688        0.25077888730519       -0.21222644406341
H            1.77022482453263        1.09898638799735        0.57363216718560
H            2.26850161739333        0.94451719818762        3.07598331442138
H            1.94029246148665        2.74110352955241        3.13098991482508
H           -0.45871339031601        2.28873446172256        3.46885495170793
H           -0.12471705319639        0.49760697582860        3.40645555444002
16
 energy: 0.379949612657 xtb: 6.7.1 (edcfbbe)
C           -0.89284168933963        0.43994147711534       -0.22818942673408
C           -0.09143388166731        0.31550013857988       -1.28100915052722
C            1.33797365244613        0.04930491562319       -1.20982432035426
C            2.14421769643655        0.45714629493136       -0.23610747719164
C            1.55495352271194        1.75687258054227        3.19266704567331
C            0.27345711873979        1.51126651582747        3.36922670052959
H           -0.51400496329543        0.31533790716700        0.77511865575846
H           -1.94122344447294        0.65627882210059       -0.31968418746852
H           -0.49722756092843        0.39049601833481       -2.28266387429720
H            1.74736930145794       -0.49825589995915       -2.05144057693084
H            3.19867368349849        0.23115658201720       -0.24163621986193
H            1.78683962434619        1.05630597398821        0.58885385400629
H            2.28100496752912        0.96276421345890        3.11067412408654
H            1.93974193317716        2.76411609036312        3.12062730594138
H           -0.45807145976223        2.30114381441696        3.45410856659721
H           -0.10942959193637        0.50510186949061        3.43927775611989
16
 energy: 0.359789318061 xtb: 6.7.1 (edcfbbe)
C           -0.89220694135652        0.43317303340867       -0.21755919804085
C           -0.09315168941446        0.31244337630657       -1.27092068377188
C            1.33819629601425        0.05259347423967       -1.20658849056569
C            2.14875368395924        0.45272542667670       -0.23592529580569
C            1.55371832430007        1.75978460513857        3.18719615543474
C            0.27198437444234        1.51346285356471        3.36112715693626
H           -0.52356185502331        0.31776517532181        0.78531292598405
H           -1.94345892519601        0.64630406985387       -0.32073223465093
H           -0.49985047078884        0.39732354959830       -2.27533116704642
H            1.74704022805226       -0.48735537795626       -2.05226861351548
H            3.20337498343787        0.23082008641138       -0.25240770313684
H            1.80122017219779        1.04321847981695        0.59720868269076
H            2.27961366953126        0.96656595633866        3.10981757953879
H            1.93798481467124        2.76496267889309        3.11641343299538
H           -0.45883428909977        2.30165225908993        3.44268900622584
H           -0.11082346678642        0.50903766729511        3.43196722207495
16
 energy: 0.343162646389 xtb: 6.7.1 (edcfbbe)
C           -0.88944758455399        0.43484864765081       -0.21118547405897
C           -0.09314466773621        0.31650304169725       -1.26478508873844
C            1.33921582468792        0.05720100980295       -1.20703558994918
C            2.15211118781246        0.45065333197248       -0.23692472282234
C            1.55220064072429        1.76262856545024        3.18159079396111
C            0.27009701388744        1.51606231774261        3.35173706494214
H           -0.52684860518959        0.31450677299350        0.79698115830652
H           -1.94271487939042        0.63499083850575       -0.31795562946843
H           -0.50387200337649        0.39691025319825       -2.26350301145387
H            1.74629339984076       -0.47825812478391       -2.05585632079513
H            3.20545640932802        0.22845889569416       -0.25750183014211
H            1.80741586694258        1.02948509966973        0.60455969214694
H            2.27972721868234        0.96975148685663        3.11175035299992
H            1.93567126491140        2.76625238960935        3.11087321638448
H           -0.45996055234675        2.30279002804962        3.43024340608461
H           -0.11220162528282        0.51169275988831        3.42701075794982
16
 energy: 0.322668845705 xtb: 6.7.1 (edcfbbe)
C           -0.88801377721675        0.42564134340777       -0.20057694007868
C           -0.09448844303257        0.32292642852190       -1.25889205527993
C            1.33861420181249        0.06443275047016       -1.21602815535184
C            2.15501210089847        0.43878650433036       -0.23878804409249
C            1.55328314932031        1.77203740827365        3.18198128217828
C            0.27084154487433        1.52326537483148        3.34592659939326
H           -0.52761524897265        0.30375379790692        0.80447629007072
H           -1.94295154592764        0.61517877067345       -0.30728476708527
H           -0.51326253039918        0.40777370848182       -2.25067357435411
H            1.74164519319870       -0.45621048283756       -2.07850761969971
H            3.20748955423848        0.21579432853273       -0.26938653214955
H            1.81111702563350        0.99555989447664        0.61805718815664
H            2.28628706997344        0.98064380885009        3.13054719294643
H            1.93217512428820        2.77792382275031        3.09657593827595
H           -0.46271008035690        2.31047491312552        3.40570706680677
H           -0.10742442939127        0.51649494220242        3.43686490561072
16
 energy: 0.306758494585 xtb: 6.7.1 (edcfbbe)
C           -0.88325469969105        0.41945461904954       -0.18764481993235
C           -0.09382587680025        0.32661432003247       -1.24952470196207
C            1.33952117912376        0.07005063574945       -1.22058138392250
C            2.15745616544860        0.42923392059073       -0.23758894819244
C            1.55240945291194        1.77854260585137        3.17844073686919
C            0.26939122465570        1.52822648862336        3.33610473537499
H           -0.52004477710458        0.29370225686268        0.81677842230101
H           -1.94019629556179        0.59793707228661       -0.29164787434934
H           -0.52362129341527        0.41819041039707       -2.23801672577136
H            1.73852031028769       -0.43438087938984       -2.09658302819489
H            3.21001257315070        0.20676357647074       -0.27528865955886
H            1.80947402802362        0.96714248812232        0.62707714229617
H            2.28927259210209        0.99062288052808        3.14090547132933
H            1.92860825781744        2.78420286006803        3.08259352936404
H           -0.46651639464696        2.31535334481861        3.37940147747091
H           -0.10720753736073        0.52282071393640        3.43557340222548
16
 energy: 0.298809365618 xtb: 6.7.1 (edcfbbe)
C           -0.87271065791142        0.40754894888983       -0.16134497617488
C           -0.09156434119587        0.33017975821629       -1.23246354325284
C            1.34227999318401        0.08223090677992       -1.22552101176632
C            2.16241639028084        0.42079383966927       -0.23791508564490
C            1.54846074339696        1.78617542697386        3.16694502045209
C            0.26408886617421        1.53445548404593        3.31265964479016
H           -0.49799666189223        0.28324706952267        0.83929776735304
H           -1.93373319948186        0.57450184961673       -0.25879123612328
H           -0.54034135138293        0.42543059098807       -2.21428207697738
H            1.73439436253322       -0.39926901577669       -2.11532884741458
H            3.21485733492928        0.19656667665759       -0.27874351814715
H            1.80426594173274        0.92538670438871        0.64332518329666
H            2.28993693631071        1.00323353713802        3.15153185965574
H            1.92155373173960        2.79241624069778        3.05323506143947
H           -0.47443056941503        2.32051977531220        3.33157276110321
H           -0.11147861006130        0.53105952087739        3.42582177275840
16
 energy: 0.304299901344 xtb: 6.7.1 (edcfbbe)
C           -0.86298236828645        0.39495995375947       -0.13168642551048
C           -0.09132194217978        0.33068109140226       -1.21123807406405
C            1.34342455306046        0.09489415000547       -1.22275997424230
C            2.16867595350821        0.40747593276326       -0.22993014575335
C            1.54217401401422        1.79467100361203        3.14716134762717
C            0.25677984343911        1.54075128849842        3.28167084060389
H           -0.47236942295497        0.27360257809290        0.86421663127087
H           -1.92769335322131        0.55031427248944       -0.21732344290983
H           -0.55644232495672        0.42650428276664       -2.18671644308588
H            1.72994385954464       -0.35386205594113       -2.13218097670839
H            3.22354106138478        0.19044138958079       -0.28431454128797
H            1.80811126724582        0.88666862450685        0.66003335137041
H            2.28748731038853        1.01434146325415        3.16041021967892
H            1.91364515846573        2.79893039056418        3.01852167536107
H           -0.48468003369965        2.32435781316104        3.27423773941833
H           -0.11829466681170        0.53974513548171        3.40989699357913
16
 energy: 0.318371269507 xtb: 6.7.1 (edcfbbe)
C           -0.84959495719766        0.37306394158616       -0.08332406898685
C           -0.09546843146463        0.32763648325613       -1.17622301355419
C            1.34244900258757        0.11748129180620       -1.21795170932473
C            2.18085787011712        0.38647835692535       -0.22258450230141
C            1.53212248375076        1.80987621817862        3.11504108569494
C            0.24521308799607        1.55340199350907        3.22943272648749
H           -0.43297057339550        0.25449337510607        0.90459265310331
H           -1.91877482475860        0.51154174426756       -0.14518630240383
H           -0.58119114896331        0.42665899728618       -2.14369413796452
H            1.72095204419444       -0.27625570105432       -2.15723997779209
H            3.23849296892528        0.18197980724705       -0.30115196891502
H            1.82566030073947        0.81714194245305        0.70003596845010
H            2.28079271990751        1.03404990240278        3.17446534132705
H            1.90115130687702        2.81111253718474        2.95901219018244
H           -0.50163164005575        2.33164457939724        3.17687628233502
H           -0.12806130031883        0.55417184444542        3.38789820901006
16
 energy: 0.493194908662 xtb: 6.7.1 (edcfbbe)
C           -0.82788077646471        0.36504819379195       -0.02745693512565
C           -0.09607046927410        0.31310767146390       -1.13396843889419
C            1.34614075071970        0.13932751273063       -1.18792791613562
C            2.19351379754761        0.38965686249075       -0.20051860869970
C            1.51056030256549        1.80290370784479        3.05942440093016
C            0.22150433314051        1.55120409550074        3.15375143123746
H           -0.37508683087396        0.27949957206200        0.95023681733007
H           -1.89876905082447        0.49103447939021       -0.05789126584296
H           -0.59395000702467        0.37961509666052       -2.09559175893339
H            1.72310115497287       -0.21924598203307       -2.13017980229638
H            3.25364021919931        0.20954105887351       -0.29003764967102
H            1.84840437136021        0.80373224280559        0.72610358297276
H            2.24984321164953        1.02891111540730        3.14159925371770
H            1.88730798190801        2.79895108867681        2.89274617331373
H           -0.52238638621975        2.32416665214867        3.07715337502978
H           -0.15987369344053        0.55702394618299        3.32255611641489
16
 energy: 0.475502056911 xtb: 6.7.1 (edcfbbe)
C           -0.82395655387675        0.34216046394839        0.00531212276699
C           -0.10455468904982        0.31630549418019       -1.11405105167573
C            1.34060858197575        0.15609373548245       -1.18990889209192
C            2.20145317659974        0.36368484095091       -0.19780436787111
C            1.50629452387240        1.82180396858330        3.04063788326878
C            0.21758056327111        1.56426619976922        3.12736522192548
H           -0.36470168809659        0.25040758968184        0.97684709986301
H           -1.89570680720682        0.46134329529160       -0.01291140433118
H           -0.60955442218368        0.38934367278686       -2.06819359099221
H            1.71279444263963       -0.15744649983049       -2.15960249127558
H            3.26132751453661        0.19792989431169       -0.31846778489600
H            1.87887956921360        0.73924331744527        0.76147947160774
H            2.25192498994867        1.04635565745428        3.17313383645099
H            1.87853563370286        2.81619426230163        2.84702803260930
H           -0.53180945600741        2.33326388765313        3.00748807454906
H           -0.15911647039827        0.57352753398692        3.32164661544026
16
 energy: 0.370070701853 xtb: 6.7.1 (edcfbbe)
C           -0.82818456936890        0.35181040069697       -0.01328454186720
C           -0.10321099851712        0.31541328303884       -1.12414463588951
C            1.34046172123501        0.14472475384301       -1.19041100207388
C            2.19649811284503        0.37178253052593       -0.20289288362033
C            1.51035579994787        1.81600805931409        3.05434181357021
C            0.22166082058604        1.56195634052771        3.14548186982526
H           -0.38320426549812        0.25564661644047        0.96124761567744
H           -1.89702258526724        0.47595488659332       -0.03985528522724
H           -0.60028653601828        0.39114321366247       -2.08305513715328
H            1.71590189707842       -0.18656570536612       -2.15282936874005
H            3.25417436070850        0.20405929213084       -0.31789432800533
H            1.87471044156247        0.75992046143083        0.75045933686868
H            2.25339004515164        1.04153636252801        3.16706546339691
H            1.88378278145632        2.81118061018202        2.86656285950770
H           -0.52457683327099        2.33234520632934        3.04068853005083
H           -0.15445128368959        0.56756100211947        3.33851846902764
16
 energy: 0.338318316828 xtb: 6.7.1 (edcfbbe)
C           -0.82772484130606        0.35425114327991       -0.01244233830588
C           -0.10276146936869        0.31803409788339       -1.12401119881751
C            1.34049159917433        0.14547834408912       -1.19025020770225
C            2.19631932070570        0.37749144723969       -0.20239213490166
C            1.51029308026537        1.81431801396665        3.05185780205122
C            0.22150003396327        1.56077330095368        3.14672971175406
H           -0.38385059358066        0.24972948940168        0.96180861878020
H           -1.89643897049556        0.48098497341115       -0.03846844984466
H           -0.60033889901510        0.39149244120544       -2.08321119754615
H            1.71606598131837       -0.19106596200458       -2.14972081477831
H            3.25360534428217        0.20900586262208       -0.31664211742644
H            1.87412163542065        0.75660912124365        0.75263406992735
H            2.25394663808538        1.04241996727392        3.17147745715590
H            1.88337945783013        2.80664611003518        2.85552843013883
H           -0.52483564806250        2.32851826720746        3.03133889073076
H           -0.15377376027576        0.56979069618880        3.34576225413236
16
 energy: 0.310084361243 xtb: 6.7.1 (edcfbbe)
C           -0.82722782977820        0.35557877307561       -0.00995155177380
C           -0.10186845590350        0.32083357579415       -1.12213981783109
C            1.34041453528274        0.14304136853380       -1.18732353054216
C            2.19441230907133        0.38383253607328       -0.19812451911144
C            1.51006226168655        1.80920518179197        3.04345109426046
C            0.22117685134005        1.55640286056134        3.14416948705091
H           -0.38554565913891        0.23747728616252        0.96394204144093
H           -1.89466641289261        0.49559134637447       -0.03490000355768
H           -0.59916581487488        0.39874028666353       -2.08178864430780
H            1.71779586232805       -0.19781024055446       -2.14268241543757
H            3.25232985575448        0.22293412447168       -0.31385565575131
H            1.87212083265701        0.75707183865223        0.75627713913860
H            2.25542222550220        1.04372174123830        3.18616478558790
H            1.88226296755600        2.79502109272079        2.82191608931757
H           -0.52535295235708        2.31905616320439        3.00524219085424
H           -0.15217166729220        0.57377937923362        3.36960208601004
16
 energy: 0.287753295211 xtb: 6.7.1 (edcfbbe)
C           -0.82660900164889        0.35788685351531       -0.00389237654142
C           -0.10045294299231        0.32468969502469       -1.11610282452548
C            1.34054280913180        0.13916141233301       -1.17949109350079
C            2.19084417544317        0.39562892275710       -0.18944836898878
C            1.50976507922249        1.79843263082137        3.02673151845938
C            0.22103818797686        1.54724600905193        3.13785186123955
H           -0.38911144925326        0.21547370070760        0.96924412019637
H           -1.89139146684934        0.52138007049600       -0.02758211613766
H           -0.59584473102855        0.41793425314120       -2.07616558915819
H            1.72161476047321       -0.20810530533218       -2.12925251189180
H            3.25000031160710        0.24461072372852       -0.30646866707618
H            1.86742846733505        0.76563367552786        0.76326635585105
H            2.25799180831878        1.04462037970979        3.21734902557819
H            1.87995068393345        2.77133051079282        2.74616823102033
H           -0.52628573567249        2.29967144272606        2.94725954484114
H           -0.14948204705595        0.57888233899619        3.42053166598203
16
 energy: 0.417325212787 xtb: 6.7.1 (edcfbbe)
C           -0.82636922223118        0.36160197264450        0.00873040513860
C           -0.09822181532138        0.33366207507776       -1.10217855230642
C            1.34109396134772        0.13531593570653       -1.16268521874234
C            2.18576861985926        0.41328672587002       -0.17301902329466
C            1.50931054252745        1.77750793744814        2.99167825927724
C            0.22120252525963        1.52992875814683        3.12042961483119
H           -0.39609955412766        0.18151680151007        0.98021650132456
H           -1.88634760168895        0.55893370314501       -0.01381964672471
H           -0.58882594693585        0.45693246591793       -2.06248632488264
H            1.72733939926295       -0.22189865460321       -2.10578084779820
H            3.24674824381358        0.27345378850802       -0.29004814465841
H            1.85992728213062        0.79152126214351        0.77458078140274
H            2.26149051378050        1.04682384412274        3.27352057274657
H            1.87566069528273        2.72519555376675        2.60608197755051
H           -0.52740260984408        2.26163160440335        2.84088037245812
H           -0.14527612417420        0.58906354018933        3.51389804902553
16
 energy: 0.275285864513 xtb: 6.7.1 (edcfbbe)
C           -0.82712061558642        0.35925006679278        0.00738513213437
C           -0.09896557149061        0.33207363795629       -1.10267723782594
C            1.34123988898782        0.13801980081275       -1.16407752038943
C            2.18790769981701        0.40596811198945       -0.17581295894215
C            1.50945958286556        1.78173907063065        2.99793479878871
C            0.22148536828270        1.53398779156651        3.12186838335634
H           -0.39492999153692        0.19361313421245        0.97895541771009
H           -1.88799704268410        0.54380797211987       -0.01616437905999
H           -0.58936538637552        0.45220699818681       -2.06236530165240
H            1.72524734033063       -0.21490604561668       -2.11144370901287
H            3.24827138083710        0.25895522412921       -0.29122190924116
H            1.86238766130179        0.79385468829059        0.77099203344560
H            2.25926431883332        1.04724715310228        3.25291957797182
H            1.87675275187017        2.73278753304487        2.64135496876774
H           -0.52668205337288        2.26769262485980        2.86843047480071
H           -0.14695642313854        0.58817955191962        3.48392100449623
16
 energy: 0.290607288398 xtb: 6.7.1 (edcfbbe)
C           -0.82824395109033        0.35993459500668        0.01527511183573
C           -0.09847034036417        0.34002814593821       -1.09292876020244
C            1.34183155104099        0.14257779060120       -1.15392187291414
C            2.18916580689396        0.41004189444002       -0.16849502112929
C            1.50952335136118        1.77266177254238        2.98141135861759
C            0.22191090270718        1.52752585242122        3.11121479705253
H           -0.39803032399466        0.18794208196040        0.98598662619798
H           -1.88801146045770        0.54439965259051       -0.00920044400538
H           -0.58566611626886        0.47198940280069       -2.05185959222242
H            1.72415987262375       -0.21480186808610       -2.10223706449258
H            3.24893986411877        0.25384711005027       -0.27915548671301
H            1.86262508293247        0.81589328885654        0.77376796919066
H            2.25865787035235        1.04875410365535        3.26066003124708
H            1.87556753280737        2.71075489365048        2.59408338578435
H           -0.52724506939119        2.24897546467508        2.83273890086796
H           -0.14671566432995        0.59395313289439        3.50265883623306
16
 energy: 0.518999911747 xtb: 6.7.1 (edcfbbe)
C           -0.83082020596188        0.36383285420481        0.03700938151999
C           -0.09685223873739        0.36634322098335       -1.06781254154745
C            1.34289282957475        0.15719064665990       -1.12789098236275
C            2.19398592736826        0.42677501168600       -0.14903745741315
C            1.50953632537747        1.74758507919734        2.93479845456318
C            0.22231974731140        1.50911457294774        3.08027584764515
H           -0.40542415292238        0.16896958760275        1.00577407109174
H           -1.88943815492552        0.54897476686923        0.01075049288071
H           -0.57770516376409        0.52201698720732       -2.02526117551049
H            1.71852817507290       -0.21848443730203       -2.07492763841587
H            3.25139389259646        0.24464350418856       -0.24681802547327
H            1.86636097027386        0.86540687996386        0.78284450790726
H            2.25866747236398        1.05076977826293        3.28418193671552
H            1.87258457612886        2.65377755482290        2.46831504560062
H           -0.53013362415458        2.20012101366472        2.73458705533773
H           -0.14589746666086        0.60744029303794        3.55320980280865
16
 energy: 0.572312078438 xtb: 6.7.1 (edcfbbe)
C           -0.83167588712694        0.36510381452411        0.04389346768759
C           -0.09665984444258        0.37740303612459       -1.06043636191227
C            1.34268776085747        0.16491061449810       -1.12126861855951
C            2.19823410429947        0.43095587974512       -0.14474594800857
C            1.50946000146744        1.74243839095072        2.92518063162963
C            0.22198493676698        1.50534649515109        3.07084548003083
H           -0.40600242360511        0.16706975797211        1.01221188034758
H           -1.89216294038787        0.54349540772267        0.01714245553052
H           -0.57748341054393        0.53330818719899       -2.01732093163477
H            1.71274833237582       -0.21702775425911       -2.06799891972677
H            3.25377001952886        0.23688314010562       -0.23852487633799
H            1.87284725872997        0.87299429686569        0.78486954614598
H            2.25800205105621        1.04959647739476        3.27501810251927
H            1.87264634074976        2.64351580568595        2.45708273355278
H           -0.53171138323084        2.19004623654175        2.72169862596709
H           -0.14668600755350        0.60843752777515        3.54235150811618
16
 energy: 0.800310679511 xtb: 6.7.1 (edcfbbe)
C           -0.83266743671413        0.36777868995051        0.05998877663669
C           -0.09568271687058        0.39756822167533       -1.04322678169681
C            1.34210953727527        0.17552945072498       -1.10535977770019
C            2.20347108982066        0.44058992226217       -0.13246801084174
C            1.50872098238453        1.72792307117385        2.89941648169386
C            0.22091541420293        1.49332560707347        3.04688572709620
H           -0.40880439175760        0.15352164841648        1.02619968129958
H           -1.89426009575203        0.54788533599770        0.03373466367472
H           -0.57589160168202        0.56507184324246       -1.99925619418262
H            1.70430086519103       -0.21708083578480       -2.04946256885993
H            3.25650359751169        0.23618174973851       -0.22367799908314
H            1.88352314012657        0.88919968187308        0.79243461063928
H            2.25749485352013        1.04805454176719        3.27190586255851
H            1.87163275981611        2.61396415877649        2.40401298530260
H           -0.53418542545073        2.16219401185220        2.67225025233901
H           -0.14718166268055        0.61277021525770        3.54662106647155
16
 energy: 0.925331965426 xtb: 6.7.1 (edcfbbe)
C           -0.83225967635962        0.36982535406230        0.06932501357592
C           -0.09537420214373        0.40582304101178       -1.03376557942866
C            1.34103353576251        0.17868826231541       -1.09885613164779
C            2.20545702922028        0.44399079343559       -0.12755527648612
C            1.50756521687158        1.72141428293963        2.88691636572867
C            0.21943736301123        1.48650253010810        3.03306971463902
H           -0.40967864649905        0.14205054509357        1.03306392967885
H           -1.89339160437547        0.55750854459997        0.04540619893920
H           -0.57691187732371        0.58133515942567       -1.98875981100667
H            1.69963063238613       -0.21609637822469       -2.04104748359249
H            3.25760467375307        0.24217209809631       -0.22387483076003
H            1.89163872355400        0.88886504152674        0.79766708561309
H            2.25724027224759        1.04612666360320        3.26649823536278
H            1.87119697631508        2.60373470997034        2.39001425089599
H           -0.53510944775349        2.15017751644017        2.65196502611146
H           -0.14808005972510        0.61235914959322        3.53993206772435
16
 energy: 1.081052917753 xtb: 6.7.1 (edcfbbe)
C           -0.83177915717764        0.37199820869562        0.08056890554786
C           -0.09527277367795        0.41370293761683       -1.02250231244847
C            1.33989315784774        0.18139862610715       -1.09189888524387
C            2.20699819980076        0.44796365497065       -0.12305433294192
C            1.50641850902746        1.71421788564046        2.87688555447983
C            0.21805713749391        1.47860797868858        3.02095224462049
H           -0.41123074647903        0.12708597044573        1.04094739908889
H           -1.89094223723042        0.57140242461717        0.05999124649629
H           -0.57747854938880        0.60110490818905       -1.97551170254000
H            1.69578518746906       -0.21513672809563       -2.03319954785179
H            3.25893285105977        0.24754861332847       -0.22551066508816
H            1.89898613920487        0.89245328198800        0.80334827174167
H            2.25621210763349        1.04406379564231        3.26354833084154
H            1.87068153580490        2.59074488176125        2.36442492062532
H           -0.53610768282009        2.13522681786561        2.62298481918797
H           -0.14915476962668        0.61209405653609        3.53802452883194
16
 energy: 1.189893165298 xtb: 6.7.1 (edcfbbe)
C           -0.83085489501133        0.37373008164704        0.09049236721076
C           -0.09584280788277        0.41825356612536       -1.01335699488920
C            1.33838497277669        0.18253494635497       -1.08893177443756
C            2.20838858564794        0.44951617586398       -0.12301308788279
C            1.50495058598408        1.70962040288889        2.86736399231682
C            0.21640124399788        1.47206331643985        3.00705490704064
H           -0.41185085212361        0.11309138884163        1.04685863914266
H           -1.88722655271572        0.58556368597220        0.07451519090375
H           -0.57924904260735        0.61641998347721       -1.96346780983923
H            1.69233677485140       -0.21266385487824       -2.03127089205761
H            3.26057377551617        0.25060305624547       -0.23360080927687
H            1.90612635558798        0.89163529922634        0.80702341666338
H            2.25508022467669        1.04193591650708        3.26092536409749
H            1.87012444885471        2.58588664317458        2.35835738029978
H           -0.53593617984889        2.12671386169317        2.60821055266842
H           -0.15140772876253        0.60957284441777        3.53283833338717
16
 energy: 1.203790246095 xtb: 6.7.1 (edcfbbe)
C           -0.82950268925908        0.37384049466388        0.09747125716373
C           -0.09725240097541        0.41933254892552       -1.00806991074751
C            1.33639040574732        0.18152928485318       -1.09065367754105
C            2.20997339726386        0.44623490740806       -0.12794566157670
C            1.50387539711894        1.70968268075915        2.86837831659689
C            0.21529613755269        1.46948471821138        3.00388479860629
H           -0.41066878753384        0.10343184375837        1.04991982897194
H           -1.88306775692838        0.59573416098882        0.08668215438302
H           -0.58229851649427        0.62649205008681       -1.95476422109033
H            1.68856551409632       -0.20745787016109       -2.03695536615093
H            3.26241867934650        0.25000319390304       -0.24723511476071
H            1.91283785008074        0.88610753882312        0.80634960920840
H            2.25335546902111        1.03927640282745        3.25743630623677
H            1.87003855723375        2.59068806266502        2.36998372811049
H           -0.53589896968898        2.12631729503215        2.60701255022519
H           -0.15406337763992        0.60378000125243        3.51850417771218
16
 energy: 1.315033055149 xtb: 6.7.1 (edcfbbe)
C           -0.82754890994884        0.37459308571424        0.11215041861625
C           -0.09926543132227        0.42901133615486       -0.99570993493751
C            1.33319290623206        0.18485108408663       -1.08843684712602
C            2.21470698882725        0.44442388497606       -0.13233714553065
C            1.50255267021297        1.70499074203810        2.86231236170085
C            0.21387147245575        1.46252784236408        2.99126411797931
H           -0.40860712484398        0.08539051906328        1.05891400522077
H           -1.87807891531483        0.60707044672462        0.10855876300303
H           -0.58589378698268        0.65413692624907       -1.93701674807174
H            1.67898480120838       -0.19917691458424       -2.04093354741967
H            3.26591404261320        0.24415375050850       -0.25962049853339
H            1.92490308712093        0.88599588181822        0.80521281174881
H            2.25036570163874        1.03530887949704        3.25593182936046
H            1.86956029700785        2.58688384369175        2.36511983214006
H           -0.53644755289915        2.11739235515232        2.58916033201669
H           -0.15821133706399        0.59692365054269        3.50542902518045
16
 energy: 1.462159403637 xtb: 6.7.1 (edcfbbe)
C           -0.82319760801124        0.37384309751357        0.13523188617532
C           -0.10267198028338        0.44798893776892       -0.97677566324771
C            1.32723268062464        0.19322420275140       -1.08709053923910
C            2.22354250419300        0.43990610697338       -0.14162673761560
C            1.50057342752871        1.69844789757752        2.85677062148859
C            0.21141957612472        1.45271160989557        2.97218887105900
H           -0.40187571963861        0.05611391773155        1.07215085183640
H           -1.87043277908475        0.62047918333752        0.14439570321826
H           -0.59314209357233        0.70245420049399       -1.90864524207913
H            1.65907757901176       -0.18411012228161       -2.04913494175333
H            3.27147148488697        0.23155151094199       -0.28059984910373
H            1.94641929519030        0.88043223628825        0.80081201175184
H            2.24496805441896        1.02755841504671        3.25213984977290
H            1.86946696544183        2.58373750342487        2.36500668511110
H           -0.53739813102201        2.10684720855195        2.56722967039562
H           -0.16545434686714        0.58329140798158        3.47794559757738
16
 energy: 1.545276882711 xtb: 6.7.1 (edcfbbe)
C           -0.81892426028499        0.37297237360771        0.15136693787337
C           -0.10475998275376        0.46681097000065       -0.96318086999872
C            1.32241750947062        0.20240420260295       -1.08692675346769
C            2.23006799927671        0.43564962243374       -0.14873942704261
C            1.49915337253680        1.69275188063203        2.85094578206376
C            0.20962925948362        1.44644460725906        2.96027436141936
H           -0.39431012675234        0.03352727952867        1.07980998408246
H           -1.86514923275408        0.62429097638210        0.17095343642443
H           -0.59866597331356        0.74288328526926       -1.88706822470627
H            1.64111205220711       -0.17240698067898       -2.05463150944467
H            3.27467712976140        0.21917985837549       -0.29469315779455
H            1.96271895922470        0.87525262358022        0.79629357436579
H            2.24106485455470        1.02085157105471        3.25208794873191
H            1.86985938682700        2.58064000666100        2.36559285656758
H           -0.53835052330287        2.10083662907491        2.55037222506965
H           -0.17054151523964        0.57238840821359        3.45754161120407
16
 energy: 1.493195865963 xtb: 6.7.1 (edcfbbe)
C           -0.81519755638384        0.37074708465724        0.15615134465824
C           -0.10553743503688        0.47857439276806       -0.95938917826875
C            1.31941519686772        0.20926620576651       -1.09126788793007
C            2.23264417265926        0.43113823521447       -0.15543847599543
C            1.49849960168590        1.69209450460739        2.85614257298699
C            0.20830285565855        1.44621709085807        2.95693669788409
H           -0.38627917856589        0.02174235445293        1.07823035902954
H           -1.86238201318525        0.61948501880502        0.18317506571799
H           -0.60260187804826        0.76471232761095       -1.87775906536824
H            1.62907461993952       -0.16480550668411       -2.06062367838895
H            3.27475638087031        0.20916036160346       -0.30487690527444
H            1.97116375294444        0.86549670290924        0.79199299778266
H            2.23808676692811        1.01496178141119        3.24893468570573
H            1.87151023999715        2.58478749481259        2.37890514457342
H           -0.53784753533564        2.10639785449606        2.55632994639504
H           -0.17360908205378        0.56450141070801        3.44255515184011
16
 energy: 1.518875962521 xtb: 6.7.1 (edcfbbe)
C           -0.81369687361310        0.36944397734591        0.15934249780766
C           -0.10520578171279        0.48718180477486       -0.95564571489319
C            1.31838137369953        0.21394874226337       -1.09076401204346
C            2.23259438477904        0.43109117636333       -0.15481370343249
C            1.49792304527203        1.68830305110442        2.85149366045003
C            0.20735641639204        1.44466315551572        2.95369123987975
H           -0.38264562943150        0.01010713192051        1.07720945069929
H           -1.86151023858238        0.61872795327895        0.19034285422609
H           -0.60353954839891        0.78243170346488       -1.87143681976703
H            1.62398630064292       -0.16178633510888       -2.05903756413220
H            3.27374300520531        0.20562793963717       -0.30633168612217
H            1.97490802175092        0.86468868141935        0.79344690760251
H            2.23725751070404        1.01102429215212        3.24767977147473
H            1.87253723262792        2.58034102003548        2.37562929067995
H           -0.53777423341344        2.10552757926490        2.55043011769000
H           -0.17431607698019        0.56315544056496        3.43876248522845
16
 energy: 1.492276792535 xtb: 6.7.1 (edcfbbe)
C           -0.81329468874920        0.36594388054716        0.15698832332725
C           -0.10442334505936        0.49479192315060       -0.95615277451056
C            1.31838798769756        0.21805659751789       -1.09197353790053
C            2.23012399412974        0.43070205039364       -0.15290762040534
C            1.49793244901429        1.68532636825883        2.84968819339345
C            0.20668595895222        1.44621279669569        2.95554659546563
H           -0.37962143815178       -0.00136947113819        1.06978741530016
H           -1.86158704189585        0.61302713629080        0.19152774940065
H           -0.60280816761483        0.79727311119940       -1.86960987452867
H            1.62284546607396       -0.15867185322714       -2.05905056062134
H            3.27074951120152        0.20076428094459       -0.30493525877754
H            1.97452575092999        0.86430890750981        0.79618965036542
H            2.23669355168080        1.00516122839675        3.24353076047486
H            1.87510405132805        2.57714095112624        2.37661048477104
H           -0.53663517313339        2.11093522802041        2.55462673929396
H           -0.17467995746229        0.56487417831057        3.44013249029949
16
 energy: 1.556527910355 xtb: 6.7.1 (edcfbbe)
C           -0.81231962628464        0.36225418968377        0.16355519572877
C           -0.10526009121260        0.50781044320356       -0.94917174372384
C            1.31642877943560        0.22440079363827       -1.09149115746691
C            2.23104511773520        0.42940567525411       -0.15332243537699
C            1.49751183963249        1.67919298757743        2.84525381524369
C            0.20536805617747        1.44344651632446        2.94894593143650
H           -0.37702703651769       -0.02826577985633        1.06791622419573
H           -1.85857635736783        0.61670423225778        0.20602163652816
H           -0.60378579745088        0.83140066986694       -1.85695622099919
H            1.61689424831088       -0.14919664268970       -2.06190615812337
H            3.27035162374225        0.19408010736149       -0.31030618051910
H            1.98116688880179        0.86215912004441        0.79839708200006
H            2.23414491591103        0.99553782675620        3.23601455423895
H            1.87794234932591        2.57110863877199        2.37387823889434
H           -0.53534406889177        2.11113690771974        2.55056644355114
H           -0.17854193240575        0.56330162808291        3.43260354974007
16
 energy: 1.514828314033 xtb: 6.7.1 (edcfbbe)
C           -0.81352710733222        0.35822678480341        0.15930385469015
C           -0.10528156107383        0.50843884368442       -0.95170524803869
C            1.31690779359580        0.22571826324699       -1.09273594090921
C            2.22961050993958        0.42869708859813       -0.15266096472474
C            1.49845710204398        1.67826666012655        2.84656585927752
C            0.20602436982701        1.44621283225509        2.95345890082137
H           -0.37880399215118       -0.03436633035751        1.06109703201156
H           -1.85873509698836        0.61350867927018        0.20287335932718
H           -0.60128298546285        0.83714201624866       -1.85785640961321
H            1.61998432510159       -0.14508435444662       -2.06462222927623
H            3.26880133039534        0.19204304482709       -0.30742293267196
H            1.97738672146707        0.86051143486478        0.79899905213194
H            2.23395167841577        0.99077366034920        3.23308295172491
H            1.88018123302509        2.57032213855046        2.37599629810786
H           -0.53392975377566        2.11749302134751        2.55913023890838
H           -0.17974565808574        0.56657353062869        3.43649495358117
16
 energy: 1.533329204873 xtb: 6.7.1 (edcfbbe)
C           -0.81389607154375        0.35574243428425        0.16001603312483
C           -0.10527613917854        0.51555324952301       -0.94914154744390
C            1.31618434058648        0.22958376172728       -1.09217820194290
C            2.23011173907420        0.42691729513041       -0.15232745897289
C            1.49932843653415        1.67408513113259        2.84412828781487
C            0.20640500965181        1.44643284939780        2.95254976963245
H           -0.38169443033602       -0.05077769641909        1.05698088147936
H           -1.85770826235543        0.61371470089871        0.20696964649817
H           -0.59866219341440        0.85566957220678       -1.85082483223434
H            1.61905841511489       -0.13620944537270       -2.06630168917057
H            3.26883612751265        0.19107607014385       -0.30708126324381
H            1.97704770569717        0.85551293637563        0.80003603888163
H            2.23270345036976        0.98293944283424        3.22772811693092
H            1.88300222155440        2.56533990083805        2.37427514387915
H           -0.53249150115572        2.12060627090764        2.55941140389418
H           -0.18294993917022        0.56829084038855        3.43575844622082
16
 energy: 1.603542512612 xtb: 6.7.1 (edcfbbe)
C           -0.81357144300728        0.35135182255427        0.16613523318068
C           -0.10522252629858        0.52422555904346       -0.94158224738150
C            1.31477910513754        0.23565151632145       -1.09060376662766
C            2.23246333771269        0.42610997383184       -0.15283658615781
C            1.49962530984967        1.66752680186373        2.83807846431130
C            0.20599704218857        1.44387411320653        2.94596433125047
H           -0.38480167191442       -0.06996320709485        1.05679089171081
H           -1.85569821815439        0.61885249453656        0.21784983981523
H           -0.59697733215178        0.88425047553990       -1.83756759906330
H            1.61432172098301       -0.12473857599101       -2.06727971451704
H            3.27068783386258        0.19077774361099       -0.30998353990996
H            1.98038176686688        0.84760077608458        0.80247375773509
H            2.23071717621991        0.97416567566843        3.22348640946085
H            1.88576930077529        2.55726282650751        2.36738817035024
H           -0.53102507320393        2.11963339680119        2.55259688538161
H           -0.18744741992430        0.56789592151239        3.42908824580901
16
 energy: 1.612360818258 xtb: 6.7.1 (edcfbbe)
C           -0.81357605777590        0.35415174604896        0.16688289933682
C           -0.10465568735342        0.52432781641546       -0.94019274402393
C            1.31504236853946        0.23545493046046       -1.09031741880046
C            2.23298116756001        0.42573940089203       -0.15278958743497
C            1.49960190220226        1.66699947391931        2.83770827818501
C            0.20582372007290        1.44352950725614        2.94473596748484
H           -0.38707749313659       -0.07053292926948        1.05808038994464
H           -1.85596213812482        0.61977753530154        0.21718680458336
H           -0.59660487712845        0.88270731660600       -1.83577215045682
H            1.61396311818414       -0.12318385272662       -2.06742082811795
H            3.27189841517025        0.19327118920436       -0.31109459508095
H            1.98045241782811        0.84495002312415        0.80376488334983
H            2.23049091905156        0.97407601000689        3.22381571270052
H            1.88615036547614        2.55624387287063        2.36653118533108
H           -0.53062883806457        2.11922642302473        2.55110349616506
H           -0.18790039355962        0.56773885086244        3.42777648218194
