16
 energy: 0.000000000000 xtb: 6.7.1 (edcfbbe)
C           -0.77705358962067        1.00256531388960       -0.37427006004611
C            0.00803256125606       -0.06812763652329       -0.41521319054704
C            1.46197102642616       -0.06812564178421       -0.41521217663121
C            2.24705442695429        1.00256929403646       -0.37426771729741
C            1.39307066534339        1.26847997603248        2.85079349949180
C            0.07692556821269        1.26848872121441        2.85080241843411
H           -0.38376941678460        2.00369806429917       -0.34107369651756
H           -1.85021732606258        0.91469753527342       -0.37351699803135
H           -0.44762220569676       -1.05037115376285       -0.44792896061413
H            1.91762851892125       -1.05036787095517       -0.44792786529427
H            3.32021831764553        0.91470438222659       -0.37351370286549
H            1.85376766457729        2.00370085525613       -0.34107228876692
H            1.96396422140850        0.35981624292725        2.94334122046779
H            1.96586732819686        2.17645147372874        2.75784402536034
H           -0.49586098536360        2.17646660814987        2.75785888081288
H           -0.49397786647237        0.35983114999089        2.94335538738743
16
 energy: -0.000973746994 xtb: 6.7.1 (edcfbbe)
C           -0.77720957595585        1.00240687230150       -0.37235311268244
C            0.00818847610219       -0.06813088826644       -0.41482602392893
C            1.46171861766107       -0.06793230221781       -0.41481281167220
C            2.24714512183120        1.00264128525507       -0.37253354432103
C            1.39314267672710        1.26863475885272        2.84974153275015
C            0.07695270552153        1.26853142109221        2.84983619381885
H           -0.38400515294911        2.00311302107765       -0.33761783727992
H           -1.85004489069788        0.91443182203367       -0.37286029916565
H           -0.44744666804962       -1.04995904603624       -0.45026707352222
H            1.91747756633261       -1.04970210192949       -0.45015977985373
H            3.31994676860221        0.91400416697830       -0.37213255321581
H            1.85427145824338        2.00370684449042       -0.33894492139029
H            1.96396692385439        0.35952444879929        2.94098988125422
H            1.96533410470442        2.17702733895512        2.75731624128048
H           -0.49552688482517        2.17661884383713        2.75810317981337
H           -0.49391233816101        0.35956082877640        2.94051970345803
16
 energy: -0.001950297581 xtb: 6.7.1 (edcfbbe)
C           -0.77740615092539        1.00227020879565       -0.37033123577001
C            0.00818603576940       -0.06805257026074       -0.41539301749741
C            1.46161919735068       -0.06769712908116       -0.41517743425229
C            2.24725859543611        1.00266324192375       -0.37071833192607
C            1.39317697078163        1.26870494571285        2.84758557816707
C            0.07697239783147        1.26846985032460        2.84771429717240
H           -0.38417462148127        2.00287910412174       -0.33211159850853
H           -1.85024045981509        0.91405113668346       -0.37121489127526
H           -0.44744062171418       -1.04982349642399       -0.45311520931117
H            1.91752756937951       -1.04935027720106       -0.45224907109013
H            3.32002068104026        0.91336474901321       -0.37005331145978
H            1.85472161236564        2.00379477283263       -0.33480919433704
H            1.96402680138401        0.35951909451735        2.93739488866962
H            1.96500897316279        2.17750553317543        2.75720270216580
H           -0.49543515163269        2.17684036616876        2.75827418441841
H           -0.49382291999143        0.35933778369701        2.93700042017724
16
 energy: -0.003175660871 xtb: 6.7.1 (edcfbbe)
C           -0.77761568115506        1.00208958223635       -0.36676775380156
C            0.00815802892727       -0.06794888546346       -0.41593737183628
C            1.46155562631751       -0.06748328951272       -0.41539908182525
C            2.24740356364553        1.00260864267027       -0.36746458701559
C            1.39319145666504        1.26889267600221        2.84499095506251
C            0.07697306181506        1.26848209535711        2.84519779915213
H           -0.38448637345914        2.00257546195292       -0.32455440857702
H           -1.85042714324668        0.91367399111015       -0.36863791576963
H           -0.44738984222029       -1.04961392457727       -0.45772375159005
H            1.91752370454587       -1.04900091444830       -0.45551071963194
H            3.32012086495278        0.91279403426165       -0.36705931172968
H            1.85525757860638        2.00379253525781       -0.32901094683896
H            1.96417370893060        0.35949032999604        2.93171727400293
H            1.96475442307007        2.17806923953029        2.75668285750102
H           -0.49546226679402        2.17705174732117        2.75798945477858
H           -0.49373180165944        0.35900399230524        2.93148628346162
16
 energy: -0.004703621754 xtb: 6.7.1 (edcfbbe)
C           -0.77782897007275        1.00187021342722       -0.36185269477097
C            0.00813659176216       -0.06778779935124       -0.41686411721141
C            1.46150931514895       -0.06724448790145       -0.41583322588508
C            2.24757248411524        1.00249845588721       -0.36297531966620
C            1.39319216370629        1.26910056669650        2.84022244752972
C            0.07696351967106        1.26841991326144        2.84078173275164
H           -0.38486718527137        2.00216794691737       -0.31332843109841
H           -1.85062517843782        0.91322941660946       -0.36445070900419
H           -0.44729882433651       -1.04928798180320       -0.46431083012685
H            1.91747978813544       -1.04860490762298       -0.46006572466890
H            3.32025585819519        0.91219280567431       -0.36235560278599
H            1.85583215938492        2.00368070903727       -0.32026195300214
H            1.96438893636211        0.35952297891443        2.92364529446717
H            1.96447706520021        2.17886781253147        2.75607666659727
H           -0.49561384408315        2.17731927061086        2.75780403920323
H           -0.49357497053849        0.35853240111082        2.92376720301397
16
 energy: -0.006323618434 xtb: 6.7.1 (edcfbbe)
C           -0.77804430988462        1.00157303036060       -0.35429270395442
C            0.00812710730061       -0.06753788289231       -0.41811982541577
C            1.46147179442503       -0.06694612401645       -0.41638001897438
C            2.24776098058360        1.00231215592557       -0.35603890468308
C            1.39318781996921        1.26947505462321        2.83398287848413
C            0.07694435644087        1.26839415014974        2.83480496756513
H           -0.38530891237803        2.00156537459417       -0.29702023479420
H           -1.85082624520485        0.91269673659440       -0.35813744606435
H           -0.44718032592612       -1.04874673478180       -0.47395993925008
H            1.91740947669331       -1.04807597291591       -0.46674565378220
H            3.32041270499669        0.91151957710724       -0.35531307754233
H            1.85644431815415        2.00342125013976       -0.30749745256902
H            1.96468605367187        0.35950628079826        2.91129045244080
H            1.96413590500764        2.17989904207768        2.75446840523183
H           -0.49588677094811        2.17761430438845        2.75691807133863
H           -0.49333504395971        0.35780707184688        2.91203925731215
16
 energy: -0.007027493766 xtb: 6.7.1 (edcfbbe)
C           -0.77825934967466        1.00116494446020       -0.34328900438173
C            0.00813229529780       -0.06713528416609       -0.41989563210171
C            1.46143885042085       -0.06652875651006       -0.41712611937144
C            2.24796693151555        1.00203552266709       -0.34592072318924
C            1.39317812031122        1.26987087775971        2.82365253545433
C            0.07691477137605        1.26824691954399        2.82506681564278
H           -0.38580303222552        2.00062176552972       -0.27310418297884
H           -1.85102446527413        0.91202956055408       -0.34853582773969
H           -0.44703730825552       -1.04783372956880       -0.48783557509339
H            1.91732199076665       -1.04729294674869       -0.47634384709157
H            3.32058480443243        0.91070958577856       -0.34466950616447
H            1.85709883256355        2.00293621073952       -0.28866573298251
H            1.96508005242347        0.35951106871005        2.89358651269234
H            1.96369128910008        2.18133279641824        2.75216379524210
H           -0.49631522775427        2.17800487692534        2.75566836373013
H           -0.49296964608200        0.35680390190661        2.89524690367575
16
 energy: -0.005457044991 xtb: 6.7.1 (edcfbbe)
C           -0.77839090624156        1.00077245803176       -0.33242310926655
C            0.00815096443085       -0.06668718286814       -0.42148458950622
C            1.46141473486669       -0.06610253248110       -0.41773927869701
C            2.24810613659462        1.00176344703214       -0.33589645780549
C            1.39316955562937        1.27027483559469        2.81406714747338
C            0.07688391447055        1.26813386881657        2.81599898349025
H           -0.38616415908427        1.99959778896749       -0.25000322969317
H           -1.85114422749467        0.91146421494441       -0.33900918883068
H           -0.44692346621219       -1.04678602066549       -0.50108703203149
H            1.91725562260434       -1.04646019235419       -0.48553190146236
H            3.32069817205769        0.91003096726171       -0.33413976815092
H            1.85756741763845        2.00237699869217       -0.27037000310645
H            1.96544481815006        0.35946697854034        2.87602411039200
H            1.96328189486361        2.18255890756650        2.74917743763107
H           -0.49672698752290        2.17825379235054        2.75378070360762
H           -0.49262457580903        0.35581898457005        2.87863495129883
16
 energy: 0.000750898006 xtb: 6.7.1 (edcfbbe)
C           -0.77850857799602        1.00025954467904       -0.31832683262055
C            0.00818257285442       -0.06603665856276       -0.42341322705915
C            1.46138653002800       -0.06550495902918       -0.41842544834067
C            2.24824154246436        1.00141243611409       -0.32285908072488
C            1.39315959895175        1.27068471904489        2.80097226293659
C            0.07684404314616        1.26789445984311        2.80363733924923
H           -0.38654388526757        1.99815055084800       -0.22020296794936
H           -1.85124865374578        0.91078250332708       -0.32645932828589
H           -0.44679584215571       -1.04525074466607       -0.51794970646767
H            1.91718654459739       -1.04527716537548       -0.49724501239504
H            3.32080332100033        0.90921104575903       -0.32030267404890
H            1.85806128053991        2.00157810303210       -0.24663848170195
H            1.96588996303611        0.35943226296897        2.85350122698135
H            1.96277817550726        2.18404493061216        2.74513460102226
H           -0.49726015612724        2.17850139252364        2.75120276953611
H           -0.49217754789170        0.35459489288083        2.85737333521132
16
 energy: 0.017377661895 xtb: 6.7.1 (edcfbbe)
C           -0.77859382325551        0.99957722007961       -0.30019766597936
C            0.00823313056170       -0.06507254742429       -0.42567683271461
C            1.46134747418409       -0.06464177128261       -0.41913733085779
C            2.24835612720115        1.00095619999029       -0.30603993858105
C            1.39315104069173        1.27114999961381        2.78411195195409
C            0.07679216183441        1.26754526401816        2.78774782047688
H           -0.38693900080256        1.99607352443041       -0.18232287476334
H           -1.85131945351310        0.90994765276280       -0.31012965887822
H           -0.44664930617189       -1.04297124173328       -0.53908744149251
H            1.91711464736228       -1.04356080897028       -0.51197683388442
H            3.32088108558015        0.90819917471363       -0.30234057797650
H            1.85857673491990        2.00043463749332       -0.21625929704600
H            1.96644220844058        0.35938685591744        2.82456526382605
H            1.96215126987322        2.18574646203239        2.73930770436549
H           -0.49792546015774        2.17864540224959        2.74732753627123
H           -0.49161992780669        0.35306129010842        2.83010695062286
16
 energy: 0.056277426553 xtb: 6.7.1 (edcfbbe)
C           -0.77862411831895        0.99866262308587       -0.27734645395532
C            0.00830913253200       -0.06363731154236       -0.42821075889299
C            1.46128933036303       -0.06337794565157       -0.41978547294898
C            2.24842704578051        1.00036491904080       -0.28475783614660
C            1.39314886161300        1.27160861612153        2.76246370009027
C            0.07672727606004        1.26699545132157        2.76737377555728
H           -0.38734405002199        1.99309290640741       -0.13521826171157
H           -1.85133397612281        0.90890814996359       -0.28922414999502
H           -0.44647940828705       -1.03958922859369       -0.56492787374809
H            1.91704077974104       -1.04105353582266       -0.53008485782305
H            3.32090530299291        0.90692716154218       -0.27940848289098
H            1.85910550816671        1.99880916992163       -0.17811823176410
H            1.96711103960054        0.35936863773192        2.78821468572382
H            1.96138919219051        2.18761527171956        2.73126080199022
H           -0.49874288955343        2.17857753674144        2.74184376492793
H           -0.49093011779426        0.35120489201219        2.79592442692997
16
 energy: 0.139999135051 xtb: 6.7.1 (edcfbbe)
C           -0.77856849090490        0.99744341351884       -0.24935232108937
C            0.00841975096959       -0.06151916453431       -0.43082950116674
C            1.46119923715781       -0.06152908733289       -0.42020713238325
C            2.24841880945738        0.99960934358079       -0.25854570651808
C            1.39316368530282        1.27200521397190        2.73547132476897
C            0.07664945434932        1.26616535644093        2.74201977611203
H           -0.38775102271264        1.98887195370345       -0.07853182987027
H           -1.85126185772235        0.90759838269781       -0.26307512065795
H           -0.44628055609590       -1.03463637962816       -0.59535250124963
H            1.91696584759407       -1.03741072983986       -0.55159819780840
H            3.32083550614954        0.90531170755237       -0.25081973537879
H            1.85963089941705        1.99653300912204       -0.13159526629537
H            1.96790967285387        0.35941171434095        2.74368010248571
H            1.96048263302101        2.18950496069557        2.72035983321536
H           -0.49971318089234        2.17809729621074        2.73424161250699
H           -0.49010147900238        0.34902032349923        2.75413343867154
16
 energy: 0.306439869581 xtb: 6.7.1 (edcfbbe)
C           -0.77839474786848        0.99585061681914       -0.21639268664198
C            0.00857478742549       -0.05846595954701       -0.43319096938381
C            1.46105926443893       -0.05886776005523       -0.42015689623487
C            2.24828569939479        0.99866994349771       -0.22743526213468
C            1.39321446724034        1.27223151323803        2.70288756158252
C            0.07656262746790        1.26493237880979        2.71148522093282
H           -0.38815278096725        1.98306638158465       -0.01332668782477
H           -1.85107254049663        0.90593322825068       -0.23136048864433
H           -0.44604627595993       -1.02758047372873       -0.62933098047597
H            1.91689153663433       -1.03221880935967       -0.57597444050493
H            3.32061786353181        0.90325641936096       -0.21627977613546
H            1.86013039839846        1.99342979916834       -0.07705138147069
H            1.96884128069972        0.35957653301323        2.69105800143374
H            1.95944194476305        2.19118139581471        2.70609459396275
H           -0.50081990619806        2.17693265555314        2.72410908593411
H           -0.48913470956241        0.34654945157967        2.70486388094826
16
 energy: 0.609105868248 xtb: 6.7.1 (edcfbbe)
C           -0.77808713303401        0.99384628353979       -0.17950382149777
C            0.00878402783463       -0.05423925609784       -0.43484132840823
C            1.46084843401761       -0.05516108543710       -0.41935327160149
C            2.24798222076657        0.99755094100944       -0.19217913970690
C            1.39333212773313        1.27216438856867        2.66523701704227
C            0.07647704897199        1.26317062187656        2.67631225743868
H           -0.38855687150169        1.97544958426295        0.05748990816684
H           -1.85075258973387        0.90380164623301       -0.19432654151009
H           -0.44576844409007       -1.01796489367893       -0.66477204913306
H            1.91682062254516       -1.02507289167929       -0.60196438363965
H            3.32019351341183        0.90065686158969       -0.17609746519323
H            1.86058658256933        1.98937090216660       -0.01624833604184
H            1.96990943089768        0.35993442335400        2.63159524700598
H            1.95829462586222        2.19233951839871        2.68815157167774
H           -0.50201882337002        2.17475931440868        2.71117499397235
H           -0.48804586393824        0.34387095548440        2.64932411677109
16
 energy: 1.107464435151 xtb: 6.7.1 (edcfbbe)
C           -0.77767643013058        0.99145325045814       -0.14065053952678
C            0.00905422326085       -0.04870939628753       -0.43541252331571
C            1.46054771715155       -0.05024533994994       -0.41762666657358
C            2.24748759039517        0.99628848726296       -0.15433628372894
C            1.39355977486952        1.27170321747666        2.62395342015719
C            0.07641200627733        1.26078228408132        2.63790105323080
H           -0.38901157109044        1.96608474688122        0.12936782799669
H           -1.85033287892783        0.90104800728811       -0.15292842730178
H           -0.44543552919768       -1.00563524618531       -0.69888594979415
H            1.91675685245977       -1.01572458701019       -0.62775451401453
H            3.31951814657719        0.89739546074946       -0.13126717857804
H            1.86101373033399        1.98435820346060        0.04756230761995
H            1.97112435984344        0.36057461972326        2.56789455110451
H            1.95708291063945        2.19270812673926        2.66666487527163
H           -0.50324592327320        2.17129815982478        2.69553260505286
H           -0.48685607024610        0.34109731948650        2.58998421774253
16
 energy: 1.844681791576 xtb: 6.7.1 (edcfbbe)
C           -0.77726528327317        0.98876593397107       -0.10247519413663
C            0.00938660605396       -0.04195823211095       -0.43494366103391
C            1.46014725793916       -0.04412089774193       -0.41515124009150
C            2.24683462205883        0.99494072399416       -0.11614963832218
C            1.39394552934693        1.27085148379032        2.58147295994800
C            0.07639521959956        1.25776757962765        2.59857054828621
H           -0.38963708323439        1.95544921263450        0.19700038960673
H           -1.84990537125731        0.89745081200792       -0.10885929416398
H           -0.44502930091134       -0.99095965540297       -0.72909082634925
H            1.91670273664989       -1.00426546117539       -0.65144096509696
H            3.31858292055996        0.89332130870225       -0.08342002244812
H            1.86149217814020        1.97860218441562        0.10997956840317
H            1.97251317914334        0.36161495971353        2.50380535853951
H            1.95584707990839        2.19220264923729        2.64243512637031
H           -0.50443322765302        2.16645174608592        2.67782021592788
H           -0.48557815412841        0.33836296625031        2.53044544990331
16
 energy: 4.078457033583 xtb: 6.7.1 (edcfbbe)
C           -0.77473112276289        0.97403098540453       -0.03122266134249
C            0.01079250796587       -0.02002318115922       -0.45057294217922
C            1.45839223754556       -0.02451477059013       -0.42533943837487
C            2.24303410764481        0.98523362867919       -0.04217361021206
C            1.39590126624389        1.27367849514367        2.50581707870629
C            0.07638453753267        1.25344391590190        2.53241021216051
H           -0.39109249711119        1.91048633249897        0.32346419834788
H           -1.84746285553675        0.87873627234672       -0.01229157271670
H           -0.44323352817863       -0.93841485267019       -0.80993961966101
H            1.91654480201972       -0.96373420123381       -0.71728761829922
H            3.31345642932394        0.87270645359007        0.02559724006093
H            1.86210003723096        1.95204264243794        0.22829475645959
H            1.97662159988096        0.37464619793688        2.36696604827892
H            1.95225280966521        2.19367485681363        2.62229388055779
H           -0.50720800493024        2.15311796286956        2.67801968332208
H           -0.48175341759104        0.33936657602957        2.40596314023410
16
 energy: 9.024414447731 xtb: 6.7.1 (edcfbbe)
C           -0.77675059327773        0.95626299655539        0.03300100954888
C            0.01161248594768        0.00322052134183       -0.48925405501362
C            1.45732172914398       -0.00284204297231       -0.45382929044739
C            2.24203114334638        0.97320975859430        0.03130346269062
C            1.39823147367437        1.28171845672771        2.44882798718974
C            0.07738680369588        1.25167893469185        2.48315981271437
H           -0.39512874893546        1.86602784070832        0.47834080941495
H           -1.84865993128973        0.84893519556374        0.08851581075800
H           -0.44184188044772       -0.88469880217923       -0.92347874328367
H            1.91740602933782       -0.92079354190702       -0.80280912445822
H            3.30897895458867        0.84182556454470        0.14637732714470
H            1.86571234304117        1.92638648810158        0.35632548627142
H            1.98193224624839        0.39715904717047        2.24458069241447
H            1.94705941753617        2.19558167509621        2.59467103235000
H           -0.50858041160912        2.13480145518564        2.67041299918918
H           -0.47671215205758        0.34600376677603        2.29385355885902
16
 energy: 9.321656852617 xtb: 6.7.1 (edcfbbe)
C           -0.77826101778632        0.93900730317987        0.03413824990105
C            0.01233887232475        0.02195916884262       -0.51542727232058
C            1.45665300404446        0.01376758452087       -0.47954761086931
C            2.24118959460465        0.96004992951911        0.02866068681604
C            1.40036611562694        1.29138093366166        2.46114310159155
C            0.07864858259353        1.25297153460831        2.49829941205536
H           -0.40249016095778        1.82465328028340        0.48334495634305
H           -1.84832806093936        0.81875512182680        0.11183463111426
H           -0.43979831345815       -0.84147681432509       -0.99201166836196
H            1.91789913538665       -0.88842626348356       -0.85930339084003
H            3.30365079378828        0.80971650173514        0.18319743189932
H            1.87109204180707        1.90328015169589        0.37016651026341
H            1.98513358030411        0.42129694317955        2.23457480128324
H            1.94384957938271        2.20453564279014        2.63392940637211
H           -0.51092885123085        2.12648598461617        2.72260792027636
H           -0.47101598654753        0.35652031134830        2.28439160981861
16
 energy: 9.289229399704 xtb: 6.7.1 (edcfbbe)
C           -0.78701455054020        0.91196993276861        0.02031441213265
C            0.01169653786532        0.04425262272354       -0.59692247699867
C            1.45676392082722        0.03377997499081       -0.54462373638967
C            2.24549768259755        0.93953129654480        0.03315880392654
C            1.40272806227483        1.31304134332593        2.51164462428365
C            0.08157122246400        1.26046264372750        2.55014242297912
H           -0.41687159892714        1.77151798033320        0.52972220267385
H           -1.85264723963445        0.76733487015022        0.11870693633700
H           -0.43512689667428       -0.78750522003347       -1.11447875788306
H            1.91714156753625       -0.84945012346302       -0.95882288277199
H            3.29785779595201        0.75823373062860        0.21205558677652
H            1.88444130733572        1.87363219996884        0.39162508425140
H            1.99162657189604        0.46028753452471        2.24740444463673
H            1.93774103043127        2.22622021251407        2.70082180962874
H           -0.51479248834987        2.11831636877075        2.80086987086720
H           -0.46061401611119        0.37285194652406        2.29838043089252
16
 energy: 9.080632109327 xtb: 6.7.1 (edcfbbe)
C           -0.80600424979152        0.86953750724889       -0.02122573848370
C            0.00917493176125        0.08467207322862       -0.71198181770501
C            1.45888132071487        0.07009031741465       -0.63266740583890
C            2.25620760676004        0.90791189612226        0.01922928822883
C            1.40558458761532        1.34720320443733        2.61241758655549
C            0.08782062846365        1.26907991633565        2.65022827818609
H           -0.44240633743730        1.69029923357872        0.56865876616538
H           -1.86179615649088        0.67844852018863        0.08594252768468
H           -0.42684269403297       -0.69831454920824       -1.27518167053273
H            1.91611602355076       -0.78644088589828       -1.07265241008717
H            3.28724046761172        0.66944351801666        0.21833031193227
H            1.90907531911940        1.83405196579412        0.38597004607021
H            2.00304445462874        0.52231288102012        2.29876529156577
H            1.92670215140458        2.26216665773088        2.80459615878066
H           -0.52251519884796        2.09985671761287        2.91850277018760
H           -0.44028394608685        0.39415834037626        2.35106679263316
16
 energy: 7.878058903509 xtb: 6.7.1 (edcfbbe)
C           -0.80598618254215        0.85441048808011       -0.00629137619627
C            0.01154508775553        0.08529654682475       -0.72153918238706
C            1.46153285971607        0.07072757369831       -0.64847551501196
C            2.25784064511923        0.90456065440480        0.01791156179058
C            1.40290591936357        1.36510234317597        2.60214264161112
C            0.08761420785878        1.27935989830285        2.64720875002124
H           -0.44734280441625        1.66197459118638        0.60452388415188
H           -1.86949818176255        0.68181359623308        0.04916901909215
H           -0.42331370663682       -0.68585599307271       -1.33582318306900
H            1.91782740567073       -0.79061751228338       -1.11026561869799
H            3.29381403047252        0.66697921162502        0.19871393673101
H            1.90486085519861        1.82697682140298        0.43100980711089
H            2.00965220700043        0.52699935186034        2.31622778421538
H            1.92445162015645        2.27845993750421        2.83289867993648
H           -0.53047070303685        2.10653734663869        2.94381052953093
H           -0.43543435097443        0.38175245841774        2.37877705651329
16
 energy: 7.272442692851 xtb: 6.7.1 (edcfbbe)
C           -0.80929657917686        0.83204994455621       -0.01021239053117
C            0.01526405976479        0.09268978031850       -0.75694181447556
C            1.46508997232662        0.06984628451843       -0.67577432534611
C            2.25849964896482        0.89373512217215        0.01203806363714
C            1.40025031047744        1.38736783537969        2.64458579767300
C            0.08783688813508        1.28636368282441        2.69483737031974
H           -0.45776136751122        1.59085337775427        0.67005044770052
H           -1.87925077358578        0.67431105407669       -0.02222932198635
H           -0.41137585386137       -0.64872544808242       -1.45367497761293
H            1.92120547070775       -0.78362188795821       -1.18625260714293
H            3.30413525474367        0.66420271151920        0.15685893305580
H            1.90198057003319        1.80443711229694        0.49163013532409
H            2.01783929566848        0.55041904771061        2.35149804398502
H            1.91325874910260        2.31298284626591        2.87028223748965
H           -0.54523356816088        2.11687712801781        2.98165417868780
H           -0.42244316868541        0.37068872262891        2.43164900456500
16
 energy: 6.859130003782 xtb: 6.7.1 (edcfbbe)
C           -0.81361998631379        0.80454259908125       -0.03383342030241
C            0.01956258943644        0.10762164224266       -0.81488762805848
C            1.46929794594764        0.07222685901384       -0.71361075249446
C            2.25669820975297        0.87781069412254        0.00276123816132
C            1.39682963734927        1.41585470178408        2.69981450716482
C            0.08676386589083        1.29451349807032        2.75704772550193
H           -0.47068560178092        1.49553650714537        0.73402726226785
H           -1.88530320072543        0.66068322663963       -0.10736751599339
H           -0.39491754852706       -0.59658338062243       -1.58070332620102
H            1.92617944076812       -0.76395929322868       -1.26972991302247
H            3.31120367739861        0.66105839236657        0.11154580741719
H            1.90151441500802        1.77178034062902        0.53325775311073
H            2.02711928600123        0.58187090946506        2.41090533664254
H            1.89874815345718        2.35171072104678        2.92093883830512
H           -0.56230534939276        2.11975428962221        3.03904179719448
H           -0.40708662532732        0.36005560662080        2.51079106564897
16
 energy: 5.550788676780 xtb: 6.7.1 (edcfbbe)
C           -0.81694403963670        0.76865487091790       -0.07207045995233
C            0.02519470154512        0.12758775360195       -0.89069965106224
C            1.47505444503455        0.07939570144087       -0.76590461257547
C            2.25373630525656        0.86029995031982       -0.01664868382323
C            1.39256762733549        1.44657255468773        2.77552103016296
C            0.08469859111308        1.30014691412423        2.84083530628678
H           -0.48755526027831        1.38392551945630        0.77369632665349
H           -1.88521971169199        0.64506520635796       -0.19924092868316
H           -0.37491777542073       -0.53119057262175       -1.70730879852201
H            1.93340009388715       -0.73387026840843       -1.35504819956506
H            3.31268959570244        0.65724870529079        0.06713043355223
H            1.90169880764578        1.73048303171887        0.55082717410292
H            2.03634469346549        0.62141159379863        2.49049525143046
H            1.87947986929740        2.39332272171280        2.98191434348167
H           -0.58080263038209        2.11465151888560        3.11389318383678
H           -0.38942640393009        0.35077211271566        2.61260706001896
16
 energy: 2.947626386236 xtb: 6.7.1 (edcfbbe)
C           -0.81717345610073        0.72575294670080       -0.11978843162937
C            0.03146841887929        0.14701787630383       -0.96773629323308
C            1.48135536254647        0.09043467853700       -0.82396244367666
C            2.24930519687811        0.84286725952153       -0.04424675627195
C            1.38755258637230        1.47428101987465        2.85708673389256
C            0.08183873976721        1.30160222509900        2.93182192509276
H           -0.50485470964188        1.27501672593023        0.75828075865696
H           -1.87568926180948        0.63171771888877       -0.27329613965632
H           -0.35473359772619       -0.45390445089220       -1.80120195069374
H            1.94325987433025       -0.69060293070687       -1.42625710444890
H            3.30731679094653        0.65420834329666        0.03215289014956
H            1.89832616499631        1.67807365983596        0.53806313949608
H            2.04329721767868        0.66453220101812        2.57788115660375
H            1.85706178560636        2.42827931034665        3.04392471136819
H           -0.59580408578149        2.09803799974618        3.19627528398569
H           -0.37252811799845        0.34716273049854        2.72100129570725
16
 energy: 1.908750749274 xtb: 6.7.1 (edcfbbe)
C           -0.81248566655088        0.67277330568480       -0.14919411344302
C            0.04074055142752        0.15622125419251       -1.02947783037060
C            1.49002363783888        0.09717977009967       -0.88956904373461
C            2.25239480490706        0.82475396159185       -0.08545513361905
C            1.37671027533012        1.51009679109510        2.93389396266058
C            0.07590435202307        1.30712543365910        3.01590103938070
H           -0.50763367148972        1.14278509070827        0.77358607920109
H           -1.87262253090823        0.62941399155835       -0.34711309292366
H           -0.33969562911327       -0.35111465748684       -1.92594661661751
H            1.95741367698619       -0.64607109755335       -1.52318898225343
H            3.31269259589991        0.64761414475415       -0.02058886455891
H            1.88418899407849        1.61279255328256        0.55008057566311
H            2.05128882946441        0.71479941383313        2.66726365304039
H            1.82486631094324        2.47198264560023        3.11903060398249
H           -0.61771123859576        2.08291608536034        3.28537878407271
H           -0.35607638329758        0.34120862761894        2.82539775486253
16
 energy: 1.140076821684 xtb: 6.7.1 (edcfbbe)
C           -0.80817577798568        0.63024417350640       -0.20121119886295
C            0.05039295331620        0.17355336062027       -1.10389702157715
C            1.49765523697433        0.09975009295457       -0.95593688903440
C            2.25299911057691        0.79759009652240       -0.11475405701859
C            1.36279987146792        1.54626554053984        3.01386056674793
C            0.06909878654943        1.30969064553116        3.10437419717617
H           -0.50089274606866        0.99944750005098        0.77717584954663
H           -1.85826667863493        0.62224975030294       -0.38768082873453
H           -0.32774496085212       -0.23755842859186       -2.03505719990296
H            1.97688383448696       -0.59486495266008       -1.63652932338675
H            3.32212234420390        0.64282155989945       -0.07577112886815
H            1.85977123714688        1.53756969975944        0.55990146308548
H            2.06050035935971        0.76773982780157        2.75829890987471
H            1.78430737183556        2.52087104356503        3.19361844688457
H           -0.64242221592181        2.06871457096715        3.37192054690442
H           -0.33902981751095        0.33039283322945        2.93168644250840
16
 energy: 0.920127298936 xtb: 6.7.1 (edcfbbe)
C           -0.79663867034114        0.56512172772613       -0.21250951700188
C            0.06290753142882        0.18419578398062       -1.16348034373342
C            1.50791548169543        0.10322168302979       -1.02462129679215
C            2.25379990164792        0.76964345948874       -0.14427333656659
C            1.34970110582923        1.57843648087503        3.09899116899694
C            0.06345238401965        1.30794531449262        3.19569976604933
H           -0.49164517938718        0.87527951860940        0.75422507430534
H           -1.85649391095891        0.62570824566499       -0.43031594671718
H           -0.31600607271366       -0.11695514123645       -2.14620595565579
H            1.99939586589058       -0.54068745950977       -1.75494835170889
H            3.32680971993851        0.63812641806517       -0.12105060556054
H            1.83166763545428        1.45992520548846        0.56860164088051
H            2.07135253290864        0.81929303962983        2.84578957742682
H            1.74144837456968        2.57173169192829        3.25741053044511
H           -0.66724707330955        2.05744624876333        3.44564426070229
H           -0.32042071772855        0.31604509700250        3.03104211027297
16
 energy: 0.586433281181 xtb: 6.7.1 (edcfbbe)
C           -0.78915744751011        0.54331759563437       -0.25594377966793
C            0.07073854723527        0.19904801497028       -1.21482693495818
C            1.51470897841205        0.11122183411110       -1.07952465438964
C            2.25336656566580        0.75755865468786       -0.18105829165594
C            1.34033973290261        1.60234380317133        3.15400473564163
C            0.05983451304537        1.30653606785220        3.25610954999026
H           -0.47399785864721        0.76850148646020        0.76547097741902
H           -1.84775095282658        0.62307719122167       -0.46114799857244
H           -0.30737689930954       -0.04349999043452       -2.20798531036262
H            2.01018880393835       -0.50857318414118       -1.81809826675614
H            3.31860355382325        0.63388882459638       -0.14010627946223
H            1.81077369732860        1.41029669758706        0.56398461012818
H            2.08008451737149        0.85397278069883        2.91281105517014
H            1.71083970646544        2.60688983165294        3.30233690342302
H           -0.68485602081903        2.04804740307575        3.49813713889109
H           -0.30634052813185        0.30185030285434        3.10583532050468
16
 energy: 0.528969686828 xtb: 6.7.1 (edcfbbe)
C           -0.77952111640476        0.52983293386651       -0.28696904086470
C            0.07506376955006        0.20857086572414       -1.24064028902160
C            1.51805951275475        0.11506035373255       -1.11108423173718
C            2.24832540628632        0.74121017416228       -0.19445348235281
C            1.33142346498959        1.61519156567579        3.18670266738817
C            0.05707123101276        1.30239655768689        3.29160949439499
H           -0.45453606262909        0.71530638218622        0.72390344247130
H           -1.83258739494312        0.61425454759283       -0.44499699479997
H           -0.30635135255329        0.01367851036539       -2.22262831550528
H            2.01864283407659       -0.47843020162654       -1.86102281959629
H            3.31497918863071        0.63335200066829       -0.14959999105916
H            1.79336249641682        1.37329516885084        0.54040926685796
H            2.08426501966475        0.87650370245472        2.95776274622960
H            1.68484925655299        2.62468088585150        3.33065676686802
H           -0.69538081144356        2.03700266992827        3.52976755430734
H           -0.29766653301752        0.29257119687891        3.15058200176251
16
 energy: 0.450324804197 xtb: 6.7.1 (edcfbbe)
C           -0.77335490552312        0.49723747165340       -0.30119946001317
C            0.07966308147829        0.22630529317522       -1.29056954518973
C            1.52270599102877        0.11963516399336       -1.14966933734982
C            2.24252025573701        0.71879690921603       -0.19941054490400
C            1.32442367720384        1.63652359129710        3.23285612182711
C            0.05449387352491        1.30420702988865        3.34373924456542
H           -0.44964949758870        0.63687613739093        0.72310538732480
H           -1.82500675824235        0.59923618851411       -0.46935075066704
H           -0.29938631820507        0.08363628972506       -2.30157695950736
H            2.02614079184363       -0.44778790480124       -1.92934313447216
H            3.31757193390850        0.63035813019876       -0.17445372349597
H            1.78297298314710        1.33233191915420        0.54464695014155
H            2.08915167445426        0.90663901906214        3.01295626058710
H            1.66260773465360        2.65237901496483        3.36876761484884
H           -0.70844421878981        2.03132504743904        3.57442741128018
H           -0.28641138968679        0.28677801312697        3.21507324036718
16
 energy: 0.438382959855 xtb: 6.7.1 (edcfbbe)
C           -0.76672217138468        0.48284818535169       -0.30762861239843
C            0.08183263399584        0.23330553438368       -1.30781602480290
C            1.52620386906670        0.12732944002167       -1.17508761339994
C            2.24469482999648        0.71891789848158       -0.22691074550742
C            1.32094122343097        1.64349136757941        3.25792582462195
C            0.05352751207064        1.30285957029831        3.36921144329337
H           -0.44036063484940        0.60460906670337        0.71093112756205
H           -1.82346414075829        0.59818375565423       -0.48460662782486
H           -0.29652763856324        0.10714433738158       -2.31373219132809
H            2.02820584695136       -0.43296118234410       -1.95622019111984
H            3.31472908717672        0.62667332549535       -0.18363318133941
H            1.77057305808819        1.30616911817043        0.56319960670295
H            2.09011020343187        0.92007061426300        3.03809508372664
H            1.65101062556193        2.66345589110416        3.38330695305621
H           -0.71422057375591        2.02712281081024        3.59149433554806
H           -0.28053482151507        0.28525758064395        3.24146958855261
16
 energy: 0.292446579889 xtb: 6.7.1 (edcfbbe)
C           -0.76454953636046        0.47907006069679       -0.31908912710345
C            0.08160615338488        0.23424661713238       -1.31084865034305
C            1.52639661201034        0.13046683001898       -1.18131877962902
C            2.24142954475248        0.71380458785084       -0.22726079350156
C            1.31915814698444        1.64740227430933        3.27001730597921
C            0.05352764403400        1.30133117231030        3.38116167410650
H           -0.43341587098121        0.58199643608530        0.70495035609255
H           -1.82361064359317        0.59526379778758       -0.49326430060241
H           -0.29676864294135        0.12353549877162       -2.32263022169649
H            2.02928550046258       -0.42274455268380       -1.96536817940307
H            3.31182465155052        0.62557009051886       -0.18248355260917
H            1.77283948076889        1.30321946087454        0.54419014773132
H            2.09170852006644        0.92789924275682        3.05143730366496
H            1.64382258884542        2.66935892273018        3.39077570784203
H           -0.71754428012971        2.02246368266423        3.60149940743936
H           -0.27571095990993        0.28159319217460        3.25823047737526
16
 energy: 0.305386930361 xtb: 6.7.1 (edcfbbe)
C           -0.76305289193994        0.46999619544909       -0.33295094433506
C            0.08224373232055        0.25069864311716       -1.33737077714016
C            1.52776123190966        0.14130879779317       -1.20348448005376
C            2.23874109421606        0.70311218805090       -0.22773444139277
C            1.31598829770402        1.65638445432120        3.28828605604506
C            0.05289440442223        1.30160965234439        3.40104347277211
H           -0.43147486174333        0.55203303011735        0.69200949722089
H           -1.81868934944721        0.57549748044723       -0.49462018935352
H           -0.29371433471988        0.14926595407990       -2.34093921191467
H            2.02851243235064       -0.40493462543661       -1.99079792038203
H            3.30973663106523        0.61579792513077       -0.18318687635672
H            1.77584323091932        1.28841054551032        0.53975221254650
H            2.09419706751878        0.94025543126538        3.07776663981719
H            1.63313761823292        2.68022188748135        3.40517857854870
H           -0.72350441272329        2.01777461244558        3.61839456989090
H           -0.26862098114157        0.27704514188134        3.28865258943031
16
 energy: 0.286629089885 xtb: 6.7.1 (edcfbbe)
C           -0.76065653958379        0.45888244940463       -0.34697694715614
C            0.08346224558665        0.25915617249544       -1.35266135123413
C            1.52970886579980        0.14819971618671       -1.22070050198428
C            2.23873349271397        0.69510003733887       -0.23826888380923
C            1.31218132461316        1.66610053267247        3.31019252401443
C            0.05181133120540        1.30128283004327        3.42514809260260
H           -0.42788274024330        0.51865409132297        0.67653557094659
H           -1.81446892304546        0.55989618650824       -0.50024140580693
H           -0.29283478665575        0.18373206300941       -2.36887691860943
H            2.03090434389775       -0.38445057897919       -2.02225076692089
H            3.31051921349424        0.60842177494782       -0.19268201053532
H            1.77278389126961        1.26635559314807        0.54563753182174
H            2.09671153354949        0.95440492566818        3.10707979651731
H            1.62065844669977        2.69303200699562        3.42089696710720
H           -0.73068366641636        2.01243562673204        3.63658778152990
H           -0.26094912394094        0.27327388650399        3.32057929685956
16
 energy: 0.249175178519 xtb: 6.7.1 (edcfbbe)
C           -0.75895731274393        0.44882915448139       -0.35460050729076
C            0.08391549625323        0.26890083801878       -1.36364434432295
C            1.53071598347199        0.15822439621101       -1.23262269868041
C            2.23948693468646        0.69073511539995       -0.24714713377537
C            1.30977832485592        1.67169661706654        3.32765655234429
C            0.05184338742067        1.29998174858002        3.44339240930433
H           -0.42354470073203        0.49117179984174        0.66761049684462
H           -1.81913427121872        0.55080816330493       -0.51698292802780
H           -0.29204724784727        0.20302802326569       -2.37804191417389
H            2.03130333715039       -0.36645655398905       -2.04029069932824
H            3.31188421255010        0.59964664288971       -0.19949421561490
H            1.77417058012944        1.25303612852642        0.54757255715700
H            2.09825224156447        0.96428549354960        3.12817344657995
H            1.61143350402228        2.70185121800940        3.42871914127882
H           -0.73561970612366        2.00747100791083        3.64669439358761
H           -0.25348185449506        0.27126752093155        3.34300421946068
16
 energy: 0.245402396101 xtb: 6.7.1 (edcfbbe)
C           -0.75869248189030        0.43742007099593       -0.36802152401329
C            0.08489186574194        0.28433299083488       -1.38158255309198
C            1.53209749158434        0.17451198006004       -1.25406808443435
C            2.24090861015466        0.68280373546193       -0.25371852185694
C            1.30653239108142        1.68048142870261        3.34840990383413
C            0.05167846153399        1.29913985883846        3.46492012715745
H           -0.42182017243346        0.45662311807856        0.65418102725686
H           -1.82080695476739        0.52994773030759       -0.52638382732559
H           -0.29089547442480        0.23319013994501       -2.39676458563466
H            2.03081904302717       -0.34278593478552       -2.06243852375146
H            3.31221936959750        0.58374903369616       -0.20391533088973
H            1.77878542145069        1.23524887203540        0.54989062607106
H            2.10124552170615        0.97776667617915        3.15687218672290
H            1.59913357159952        2.71448726809276        3.43884519181014
H           -0.74284471314084        2.00132314498345        3.65902190025676
H           -0.24325304187631        0.26623720057208        3.37475076323169
16
 energy: 0.255838254083 xtb: 6.7.1 (edcfbbe)
C           -0.76045032567462        0.42566696362667       -0.38443464389254
C            0.08581062918760        0.30634678002337       -1.40125858498994
C            1.53258331534315        0.19412213053965       -1.27122511176774
C            2.24420686839480        0.67201654804976       -0.25796721507766
C            1.30264137956229        1.69122453967701        3.36895708521998
C            0.05148763218304        1.29839324421761        3.48679886656332
H           -0.42300681836997        0.41887391955805        0.63737072956983
H           -1.82421400561137        0.50005257093474       -0.53614672225264
H           -0.29052975020329        0.26763475574058       -2.41349911013895
H            2.03133099331419       -0.30821901812744       -2.09387130645026
H            3.31425371528959        0.55936969134930       -0.20926093403527
H            1.78800340811999        1.21429208454372        0.55365181569700
H            2.10512057753006        0.99279978914649        3.19182517490207
H            1.58493152548059        2.72867656439383        3.44758569343361
H           -0.75179971929575        1.99361005791719        3.66910840931974
H           -0.23037051630595        0.25961669240796        3.41236462924244
16
 energy: 0.248884953447 xtb: 6.7.1 (edcfbbe)
C           -0.76126752310756        0.42275974457534       -0.38561737476203
C            0.08632435341995        0.31087087617779       -1.40145998176122
C            1.53241385319435        0.19937492227970       -1.27280141076904
C            2.24599233416515        0.67005511247955       -0.25768777394738
C            1.30194373062840        1.69260085588973        3.37078844942284
C            0.05159359388414        1.29751526874057        3.48908202236794
H           -0.42427404420728        0.41246895336140        0.63586148599766
H           -1.82541279930572        0.49365028178744       -0.53702408292642
H           -0.29168622161144        0.27661018544797       -2.41594869575190
H            2.03142296901228       -0.30016329508968       -2.09448373900451
H            3.31601011414134        0.55269591234682       -0.21252865454316
H            1.78998546174722        1.20898415975927        0.55610523572481
H            2.10604914344186        0.99538671659029        3.19743343352402
H            1.58212415707179        2.73094315667093        3.44510820474067
H           -0.75342742012255        1.99173607692579        3.66638408513382
H           -0.22779279340756        0.25898838605554        3.41678757189690
16
 energy: 0.250927833992 xtb: 6.7.1 (edcfbbe)
C           -0.76145537081477        0.41729718924181       -0.38671353792671
C            0.08714727969894        0.31653799543950       -1.40278779918438
C            1.53226668570345        0.20504539313090       -1.27594172260818
C            2.24781056305559        0.66651905747555       -0.25693723680145
C            1.30075678033333        1.69549233608360        3.37366185875408
C            0.05149576047636        1.29658767914987        3.49137359078420
H           -0.42478639365083        0.40041915598356        0.63653607207657
H           -1.82591981136774        0.48880652990488       -0.53967548405667
H           -0.29288564803708        0.29030884153335       -2.41918117087197
H            2.03296089793813       -0.28687317978207       -2.10189435402974
H            3.31740876149033        0.54494252758474       -0.21688883416506
H            1.79042790402158        1.19823506420683        0.56217680390307
H            2.10806262708964        1.00032974029819        3.20659536666698
H            1.57723676077105        2.73562391873076        3.44163383615237
H           -0.75648334110233        1.98907357761659        3.66243820705984
H           -0.22404454666127        0.25613148740041        3.42560317959005
16
 energy: 0.240663139670 xtb: 6.7.1 (edcfbbe)
C           -0.76330675686652        0.41591763913602       -0.37905783871108
C            0.08687183628695        0.32068070831289       -1.39271556244871
C            1.53082814153729        0.20990554499361       -1.26797359176424
C            2.25088178905620        0.66576522832945       -0.25039066857007
C            1.30133034505179        1.69410093262302        3.36270391122240
C            0.05215922875584        1.29513645548035        3.47835196124995
H           -0.42894453775575        0.40612309781615        0.64316898362712
H           -1.82701130666238        0.48633018324775       -0.53546032931404
H           -0.29626406875248        0.29245221226192       -2.40794129173339
H            2.03307203786430       -0.27621615839316       -2.09618612433296
H            3.31868106722342        0.53607459506763       -0.21540024889280
H            1.79414086211573        1.19263994016676        0.57223694721247
H            2.10987592939431        0.99904961611279        3.20392153323291
H            1.57712075008473        2.73456241730881        3.42380827802252
H           -0.75699460044061        1.98780404287056        3.64139919683248
H           -0.22244180794846        0.25415085866392        3.41953361971044
16
 energy: 0.237289007634 xtb: 6.7.1 (edcfbbe)
C           -0.76359238138262        0.41025811315814       -0.37456748960277
C            0.08676793635715        0.32787232741475       -1.39070644310114
C            1.53046221787549        0.21562938121160       -1.26743129599596
C            2.25218313493261        0.66139966783111       -0.24587806359163
C            1.30082020168302        1.69583180061890        3.35829990408824
C            0.05254709507751        1.29295622727518        3.47351453882829
H           -0.43017436069576        0.39826980742289        0.64917942618351
H           -1.82629952837815        0.48280674283881       -0.53226671113738
H           -0.29824171244158        0.30523464716401       -2.40525594934456
H            2.03333464159445       -0.26034083065431       -2.10195812096062
H            3.31905644921196        0.52828391121068       -0.21348339451505
H            1.79605828263478        1.17925106238865        0.58239735989358
H            2.11309225421818        1.00235636347908        3.21042478548301
H            1.57248698704828        2.73820744827286        3.41017945203737
H           -0.75966282911525        1.98513105937461        3.62530046455608
H           -0.21883947967571        0.25132958499158        3.42225031252203
16
 energy: 0.217670718628 xtb: 6.7.1 (edcfbbe)
C           -0.76346668386790        0.41098746560296       -0.37379600602788
C            0.08595192425280        0.32645612414269       -1.39052447902941
C            1.53074149470758        0.21519946288903       -1.26772909297748
C            2.25081101248324        0.65900478578141       -0.24429850306293
C            1.30093889378683        1.69553782782447        3.35711963804108
C            0.05260495927993        1.29264730282571        3.47059505107344
H           -0.42938189607733        0.39865376722913        0.64998975015673
H           -1.82616822535984        0.48458006218371       -0.53019042382454
H           -0.29732425257470        0.30665201208377       -2.40445332408606
H            2.03205911976124       -0.25755133524783       -2.10433002539279
H            3.31933801416146        0.53431683843574       -0.21247952975995
H            1.79642056300713        1.17309773317562        0.58616733472099
H            2.11359350143426        1.00218002155030        3.21163469068465
H            1.57174854391562        2.73784684913390        3.40746418017950
H           -0.75990861261210        1.98449788157985        3.62145446344755
H           -0.21795944735387        0.25037051480804        3.42337505120012
16
 energy: 0.197597765198 xtb: 6.7.1 (edcfbbe)
C           -0.76283979913926        0.41275551683774       -0.37077398997379
C            0.08424333093244        0.32447191853986       -1.38887685563983
C            1.53147627009550        0.21616284405080       -1.26835114005154
C            2.24805650730150        0.65575730212141       -0.24135881030196
C            1.30139421964491        1.69451737645180        3.35408026294141
C            0.05318403027405        1.29095373875246        3.46594900586175
H           -0.42700753340303        0.39912593871163        0.65271608317186
H           -1.82567316140388        0.48962878078987       -0.52401025455723
H           -0.29599623465014        0.30818456927683       -2.40211381523328
H            2.02967654121247       -0.24715767171844       -2.11109417312008
H            3.31947713825341        0.54604791324815       -0.20929186271609
H            1.79573621022654        1.15510173734636        0.59810587484424
H            2.11533488487271        1.00146861918710        3.21539769668942
H            1.56964159848097        2.73738353498000        3.39740909307248
H           -0.76109329655600        1.98245939919028        3.60768819651046
H           -0.21561179719785        0.24761579623266        3.42452346384520
16
 energy: 0.190009652018 xtb: 6.7.1 (edcfbbe)
C           -0.76230304272677        0.41358111039349       -0.36778607960853
C            0.08349546926123        0.32472259881460       -1.38668759871223
C            1.53171881646793        0.21823816833161       -1.26815466009662
C            2.24681698932683        0.65317497882528       -0.23852444293372
C            1.30156531176633        1.69374216890755        3.35016474035803
C            0.05343160135086        1.28934858011466        3.46036129869227
H           -0.42528254813320        0.39957308781507        0.65527258515917
H           -1.82528991950591        0.49235149843588       -0.51926870420881
H           -0.29631052134938        0.30865269361651       -2.40002327351340
H            2.02922093024242       -0.23611232754160       -2.11615197998707
H            3.31924363524187        0.55071869349686       -0.20732771270065
H            1.79423077390761        1.14275417268304        0.60679654922586
H            2.11702262907935        1.00075360343513        3.21988056278628
H            1.56816815128225        2.73724501660807        3.38890420909430
H           -0.76209342676357        1.98049881302797        3.59651802867392
H           -0.21363594050348        0.24523445703443        3.42602525311427
16
 energy: 0.172029274423 xtb: 6.7.1 (edcfbbe)
C           -0.76034468844393        0.41644664665895       -0.35559770728821
C            0.08126707176795        0.32770835378718       -1.37751053231917
C            1.53204387265837        0.22957100625681       -1.26707216036405
C            2.24359477170476        0.64389913322541       -0.22694642348735
C            1.30248287436501        1.69044058392990        3.33783636551196
C            0.05481925082990        1.28240294235218        3.44162571161918
H           -0.41910354479858        0.40203936057130        0.66585334573332
H           -1.82397366888254        0.49902490779375       -0.50143653075390
H           -0.29974764501886        0.31093534504701       -2.39096936305972
H            2.02917013858304       -0.19090015495771       -2.13369990620548
H            3.31817495294236        0.56146011131465       -0.20022158748707
H            1.78805766688874        1.09771658888252        0.63869026273726
H            2.12347377337791        0.99824383180831        3.23646980461440
H            1.56246833951432        2.73684841486693        3.35298723032328
H           -0.76629287244749        1.97269708396124        3.54972721213666
H           -0.20609138409662        0.23594315850023        3.43026305363204
16
 energy: 0.159590640642 xtb: 6.7.1 (edcfbbe)
C           -0.75823331665337        0.41981856604612       -0.33994117257498
C            0.07915258354963        0.33429463895133       -1.36551914723515
C            1.53158787537364        0.24744339415890       -1.26485201184092
C            2.24143360258526        0.63283269105988       -0.21181754129375
C            1.30328563673981        1.68647336393996        3.32062340388290
C            0.05647068590298        1.27341676514052        3.41675113780275
H           -0.41242003078252        0.40627184171142        0.67974496065457
H           -1.82273716922063        0.50150650091792       -0.48023110529264
H           -0.30650195722394        0.31486457857574       -2.37830043274868
H            2.03025017270790       -0.13287139091289       -2.15122344284975
H            3.31689026788984        0.56645285703663       -0.19188531521825
H            1.78167658200245        1.04584564024095        0.67474716087522
H            2.13131180935636        0.99578885653109        3.25838489286737
H            1.55582418686736        2.73573213097943        3.30760189868702
H           -0.77122777110588        1.96212386173764        3.48979421319119
H           -0.19676424904457        0.22448301788412        3.43612127643640
16
 energy: 0.127760323031 xtb: 6.7.1 (edcfbbe)
C           -0.75660379008261        0.42282673682587       -0.32305371775590
C            0.07759462599438        0.34457938108871       -1.35224264031077
C            1.53003956158634        0.27001719657624       -1.26069611710281
C            2.24130767312822        0.62155955405573       -0.19533500485243
C            1.30407199239045        1.68224402967478        3.30326876864816
C            0.05835334903732        1.26350527226786        3.39090073839355
H           -0.40700821646424        0.41237649812461        0.69514184865934
H           -1.82213322625417        0.49685563303137       -0.45940884504296
H           -0.31599954218323        0.32059482651880       -2.36331468967670
H            2.03172460177120       -0.07198872227508       -2.16224305376150
H            3.31588848823293        0.56229777035529       -0.18362119424400
H            1.77811946484606        0.99837713376670        0.70636360081837
H            2.13832330667131        0.99491763960732        3.28006110796444
H            1.54966137992058        2.73331286973976        3.25857575385157
H           -0.77568531654153        1.94948429835760        3.42475551458618
H           -0.18765544310870        0.21351719628333        3.44084670516891
16
 energy: 0.061979173327 xtb: 6.7.1 (edcfbbe)
C           -0.75610978959344        0.42541970242859       -0.30311170396591
C            0.07668845611892        0.36171798284875       -1.33584031788115
C            1.52642321727438        0.30164747816246       -1.25229517542358
C            2.24509208062711        0.61106242971681       -0.17688931212794
C            1.30453289715116        1.67763085521093        3.28249453238712
C            0.06048841352651        1.25182561718232        3.36010956516317
H           -0.40431212567532        0.42238877278734        0.71420604018248
H           -1.82299661493386        0.47859377055071       -0.43848772531466
H           -0.33012413485370        0.33084385781001       -2.34308341177427
H            2.03314866264809       -0.00567385601885       -2.16077123846996
H            3.31631754563960        0.54190126951296       -0.17561184257252
H            1.78031459562213        0.95681269348634        0.73211957282759
H            2.14375293069782        0.99729749750541        3.30142568130290
H            1.54451126128572        2.72769021118598        3.20275239492372
H           -0.77871778763644        1.93195256705676        3.34967865584305
H           -0.17901069895439        0.20336646457253        3.44330306024355
16
 energy: 0.056741359522 xtb: 6.7.1 (edcfbbe)
C           -0.75629230255250        0.42874006649421       -0.28113866904812
C            0.07355162828077        0.37656384116412       -1.31793753628626
C            1.52330852547873        0.33110140920451       -1.24299054513852
C            2.24681938071766        0.59976056283762       -0.15786241863261
C            1.30545757256675        1.67222453578204        3.26037036783629
C            0.06307220933926        1.23928343463902        3.32608334901282
H           -0.40200661639116        0.43271633595687        0.73560408693840
H           -1.82431179840369        0.46375211068846       -0.41383963007175
H           -0.34082623836034        0.34607946345032       -2.32060697790602
H            2.03117083710342        0.06495541933365       -2.16537331014327
H            3.31937920492829        0.53368774333884       -0.16782218806533
H            1.78401999634803        0.90080610259788        0.77054230241809
H            2.14991495610603        0.99939493929580        3.32343377721971
H            1.53812374253507        2.72114322299399        3.14027280335223
H           -0.78199945092006        1.91264202972981        3.26590870951903
H           -0.16938273783198        0.19162609649206        3.44535465433907
16
 energy: 0.035966998813 xtb: 6.7.1 (edcfbbe)
C           -0.75971468314912        0.43025078928331       -0.26078926982339
C            0.06990692675211        0.39374055968332       -1.29949133576560
C            1.51878422539015        0.35746723014528       -1.22722901335381
C            2.25178325512229        0.59309154678943       -0.14331826651062
C            1.30559112905683        1.66786546028069        3.23800735392829
C            0.06521080466784        1.22857681053934        3.29332081637446
H           -0.40740204351663        0.44266171131532        0.75706369642869
H           -1.82808342193111        0.43930560841186       -0.39552790025571
H           -0.34857694548229        0.36866603189996       -2.29650427439466
H            2.02459692535425        0.11726987629783       -2.15374865833140
H            3.32674250732211        0.51853207107942       -0.16528576041358
H            1.80001804893734        0.86461906977872        0.79576758123216
H            2.15073216802570        1.00637102074373        3.33420897704005
H            1.53554082254029        2.70994295742443        3.08799524322121
H           -0.78017894294634        1.89025902023259        3.19599209344317
H           -0.16495186719914        0.18585755009409        3.43953749252460
16
 energy: 0.079146516268 xtb: 6.7.1 (edcfbbe)
C           -0.76155183649209        0.43270831577263       -0.23300695792068
C            0.06456671012236        0.41194317273418       -1.27515568374411
C            1.51542768795024        0.38857995550597       -1.21195227802184
C            2.25370661357371        0.57757579544939       -0.12001122440055
C            1.30598909368345        1.66167973189299        3.20481495052079
C            0.06792814604654        1.21377638972916        3.24857758246857
H           -0.40822077506254        0.44690146590368        0.78421468786167
H           -1.83010182578728        0.42858671948073       -0.36505750469660
H           -0.35722077858571        0.38945057218953       -2.26977212428714
H            2.01677545949456        0.19664088550269       -2.15713762092109
H            3.33065966020876        0.51641783174228       -0.15664832579325
H            1.81319943611598        0.80235821631914        0.83931246367001
H            2.15734567425612        1.00973133445832        3.36139857021675
H            1.52882523225098        2.70012951543343        3.01284548597866
H           -0.78193757553207        1.86452177867551        3.09767606374207
H           -0.15539201329875        0.17347563320985        3.43990069067077
16
 energy: 0.026411170793 xtb: 6.7.1 (edcfbbe)
C           -0.76267206697548        0.43119173144826       -0.23169207755411
C            0.06305926362999        0.41103963456986       -1.27253547665634
C            1.51624265061489        0.38431317986081       -1.20920037683985
C            2.25363451751661        0.57823193884023       -0.12135459059884
C            1.30614623231856        1.66117983388677        3.20393082873363
C            0.06802075309717        1.21376877538595        3.24855081094783
H           -0.41058663509591        0.43642336193700        0.78542161303387
H           -1.83009230352998        0.43890962254993       -0.36364382640023
H           -0.35290226461750        0.39202855167966       -2.27084163016515
H            2.01121361110950        0.18814553558539       -2.15480115687558
H            3.33024771105997        0.52592786195913       -0.15696559250949
H            1.82010853338382        0.80563321275114        0.83795725357050
H            2.15505847484929        1.01082508095404        3.35704596927500
H            1.53031913306159        2.69852713857962        3.01183300888607
H           -0.78024923944037        1.86279454806606        3.09954638564023
H           -0.15754946203783        0.17553730594565        3.43674763285653
16
 energy: 0.055531496749 xtb: 6.7.1 (edcfbbe)
C           -0.76453525358042        0.43130197278132       -0.21375298541399
C            0.05935864375374        0.42168360268380       -1.25543233538157
C            1.51434099992714        0.39952349694179       -1.19770609437778
C            2.25687934689534        0.57377967375305       -0.11142958266810
C            1.30651918507168        1.65676805562086        3.18383826430563
C            0.06951981994446        1.20517135139069        3.22200492662581
H           -0.41189951545849        0.42615182644876        0.80288562646326
H           -1.83241808771645        0.44169297000685       -0.34444152868655
H           -0.35540413391403        0.40941086356341       -2.25585889474632
H            2.00162438824346        0.22164914676102       -2.14885217946811
H            3.33248145203476        0.52953025479010       -0.15299740834184
H            1.83313588591171        0.77571389457043        0.85842173681847
H            2.15514347046824        1.01478809439422        3.36605506372633
H            1.52932553400943        2.68994883157852        2.96820564241539
H           -0.77936639252338        1.84613163091695        3.04379358212577
H           -0.15470643412287        0.17123164779785        3.43526494194775
16
 energy: 0.101680683968 xtb: 6.7.1 (edcfbbe)
C           -0.76631181853772        0.43047502595483       -0.19544383735276
C            0.05643551738962        0.43252570687197       -1.23782479450385
C            1.51120106222621        0.41071089753133       -1.18473765738461
C            2.26066387374496        0.56644321045356       -0.10012995073341
C            1.30655087026262        1.65213716908809        3.16248999351095
C            0.07081134222725        1.19682405545371        3.19645394814306
H           -0.41174661338966        0.41235258023592        0.82049494033592
H           -1.83525998853245        0.44554500447213       -0.32493576269348
H           -0.35899281846685        0.43170955861624       -2.23968893446669
H            1.99388973625593        0.25517807475728       -2.14274372340891
H            3.33576782409737        0.53164442708597       -0.15082943287057
H            1.84382150349298        0.75184771458541        0.87270537782028
H            2.15433358639830        1.01873482928385        3.37479836777678
H            1.52955938733239        2.68012399967297        2.92523778834511
H           -0.77760947507553        1.82956797517490        2.99079686125970
H           -0.15311508048107        0.16865708476157        3.43335559156674
16
 energy: 0.146850545956 xtb: 6.7.1 (edcfbbe)
C           -0.76685949018737        0.42910844792542       -0.17910898588465
C            0.05439472686838        0.44202795280887       -1.22295396368308
C            1.50819673872260        0.42148266158631       -1.17574343366605
C            2.26469612934927        0.56463385137092       -0.09386295606807
C            1.30673489374858        1.64735335963279        3.14491753863383
C            0.07162776617064        1.18995779652728        3.17453906288049
H           -0.40874811717403        0.39575856612485        0.83556265363258
H           -1.83681360232222        0.45136202391435       -0.30615732634126
H           -0.36423630841504        0.45601725071799       -2.22403732525886
H            1.98838505910140        0.28187162475848       -2.13594834939373
H            3.33862602850188        0.53216437712739       -0.15033891057977
H            1.84862759736613        0.72745103258383        0.88581601446499
H            2.15247681352094        1.02189727754016        3.38138904419683
H            1.53099559299981        2.67013750493631        2.88624440868449
H           -0.77526051738058        1.81544866474492        2.94623741288474
H           -0.15284440192606        0.16780492169991        3.43344389084186
16
 energy: 0.160482005532 xtb: 6.7.1 (edcfbbe)
C           -0.76605304163234        0.42748788049471       -0.17260551408240
C            0.05385042400849        0.44691997881677       -1.21771965709820
C            1.50666033860802        0.42307972403355       -1.17339996316650
C            2.26559190723232        0.56267099853575       -0.09214022941527
C            1.30691644805377        1.64479280655508        3.13832931571451
C            0.07174981671159        1.18800835743585        3.16916921337104
H           -0.40511315151343        0.38099114160244        0.84062926059713
H           -1.83599582779523        0.45692398097287       -0.29691780758522
H           -0.36781976820573        0.47279316174223       -2.21655585868882
H            1.98691505769484        0.28913460219894       -2.13373995141368
H            3.33961620511575        0.53200825156423       -0.15113515844802
H            1.84795044420056        0.72253050761753        0.88554943349315
H            2.15094849385360        1.02226086129818        3.38492078206499
H            1.53311922916378        2.66428668948023        2.86925695792194
H           -0.77397806970683        1.81127016175358        2.92893802209877
H           -0.15435959684478        0.16931820989789        3.43741992998093
16
 energy: 0.197645704948 xtb: 6.7.1 (edcfbbe)
C           -0.76336959794421        0.42375976651497       -0.15890430584043
C            0.05215286320933        0.45891580567660       -1.20775156535860
C            1.50403979946921        0.42826271887591       -1.17047702164196
C            2.26605939647290        0.55843968504548       -0.08910047425843
C            1.30746592978115        1.63915279128139        3.12401991012792
C            0.07142318376481        1.18467849423483        3.15559637809854
H           -0.39662222982600        0.34954997967255        0.85085817890304
H           -1.83282148956985        0.46646450111715       -0.27612923697768
H           -0.37636952118242        0.51031713284410       -2.20118162292907
H            1.98359364715456        0.30899530075038       -2.13445483968381
H            3.34042191288344        0.52997145192908       -0.15135100214446
H            1.84644176852176        0.70763859800922        0.88886604369789
H            2.14914450423657        1.02163466430289        3.39661410061655
H            1.53714820853738        2.65150394525359        2.83059577421106
H           -0.77080438507029        1.80275192456734        2.89335841626167
H           -0.15790508149393        0.17244055392442        3.44944004226226
16
 energy: 0.191986598867 xtb: 6.7.1 (edcfbbe)
C           -0.75725560066197        0.41608701072948       -0.15489650263352
C            0.05163081982844        0.46995142326321       -1.20882208438623
C            1.50283067605026        0.42347207259982       -1.17841256941432
C            2.26398118964724        0.55913611810537       -0.09687958986876
C            1.30863075599704        1.63393845750761        3.12257858530392
C            0.06970175383943        1.18833953059030        3.16369765975910
H           -0.38277161046467        0.30255133236715        0.84946234140346
H           -1.82623641931230        0.48025904569729       -0.26148821245056
H           -0.38546809712960        0.55656069772043       -2.19500400705839
H            1.98180801303299        0.29911654885317       -2.14033168937862
H            3.33833212894459        0.52531037342038       -0.15439460540932
H            1.83837948751263        0.71528029022189        0.87587429607723
H            2.14508160737740        1.01667424046488        3.40281638320450
H            1.54607576607419        2.63795510998389        2.81417920088980
H           -0.76702919266072        1.80632965374995        2.89094511793663
H           -0.16769236913052        0.18351540872509        3.47067445136962
16
 energy: 0.255526110649 xtb: 6.7.1 (edcfbbe)
C           -0.74963093805697        0.40401893851215       -0.13514871194821
C            0.04745317403712        0.49808587497059       -1.19737970416814
C            1.49916172312478        0.43411946678249       -1.18125551387161
C            2.26273449813839        0.55352370011183       -0.09801246224949
C            1.31150576432290        1.62196237056606        3.10902831316293
C            0.06903652820716        1.18636991765089        3.15727067250558
H           -0.36502689362866        0.23459854048182        0.86020798392126
H           -1.81827133937471        0.49091706142928       -0.22533828117557
H           -0.40165245671279        0.63885580806209       -2.17351288215208
H            1.97137780727088        0.32031050156698       -2.14777983799307
H            3.33741206532102        0.51401548802298       -0.15537360586062
H            1.83892291831732        0.70013872778249        0.87744650358022
H            2.14123969007484        1.01076369506647        3.42403022158613
H            1.55686943686200        2.61212500586171        2.74874648051080
H           -0.76295790387146        1.79918553153814        2.83366310445148
H           -0.17817516508732        0.19548668559402        3.50340649504507
16
 energy: 0.160593936962 xtb: 6.7.1 (edcfbbe)
C           -0.74792220806878        0.39932212671598       -0.14284892800800
C            0.04714232804101        0.50131514856178       -1.20412831740225
C            1.49974115232316        0.43139227568440       -1.18804704742689
C            2.26148584908911        0.55658773238066       -0.10566183539228
C            1.31182040378531        1.62200288746555        3.11517322076633
C            0.06711123873726        1.19277832116504        3.16679601635807
H           -0.36514202340838        0.22756510435586        0.84911337435148
H           -1.81645133225378        0.48448144363395       -0.23096192536074
H           -0.40014138662068        0.64726534238983       -2.17934184693798
H            1.96893986337707        0.30198535593218       -2.15362929696524
H            3.33590540936936        0.50564002229829       -0.15869894778221
H            1.84097560396429        0.71775551968347        0.86954749127983
H            2.14170787010466        1.00579564031965        3.42588557769132
H            1.56003184937654        2.61038949764420        2.76415707223222
H           -0.76206508832326        1.80821976883832        2.85851133410946
H           -0.18314062054842        0.20198112693078        3.51413283383154
16
 energy: 0.133309218840 xtb: 6.7.1 (edcfbbe)
C           -0.74452882545474        0.38990805408848       -0.13970935934553
C            0.04386295293435        0.52185932785782       -1.20120642182280
C            1.49684358673729        0.43460447625638       -1.19162254516096
C            2.26252309812146        0.55649561740098       -0.11336652800414
C            1.31371347272220        1.61465521318674        3.11421318001671
C            0.06489528788079        1.19792415032049        3.17144310090040
H           -0.35881442725098        0.18031656948480        0.84422351953699
H           -1.81395738203126        0.48201650007490       -0.21897749861271
H           -0.40408950210950        0.70054521422524       -2.17216138796984
H            1.95770391130275        0.29576569262213       -2.16163348170372
H            3.33627633753738        0.48978112094803       -0.16714424992158
H            1.84961255930506        0.72998034636110        0.86432950635281
H            2.13820152674672        0.99755490836337        3.43465444981789
H            1.57015711242226        2.59380963236387        2.74358865274777
H           -0.75790487362896        1.81256534337826        2.85421420399147
H           -0.19449592629026        0.21669514706740        3.53915363452193
16
 energy: 0.129904412332 xtb: 6.7.1 (edcfbbe)
C           -0.74373976364271        0.37555860217883       -0.13242405526679
C            0.03829502966350        0.55404355646682       -1.19094980363355
C            1.49136565846157        0.44897217685907       -1.19146678830650
C            2.26790104392187        0.55525081494945       -0.12022717531493
C            1.31573230567534        1.60386468848307        3.10464598270690
C            0.06298609487068        1.20239468115148        3.17429308008232
H           -0.35502130367624        0.12152838982100        0.83919907737377
H           -1.81443502234732        0.47193869700812       -0.20199857866774
H           -0.40755692793310        0.77198379712003       -2.15585281028156
H            1.93861072493478        0.29389885766243       -2.16524136220924
H            3.33983343183113        0.46252398903763       -0.18229188989311
H            1.87026572866219        0.74480709504559        0.86306659053679
H            2.13352801929129        0.98668771210906        3.44907336020811
H            1.58394594827549        2.56858265035188        2.71000313026992
H           -0.75316898187875        1.81564949825267        2.83063558470617
H           -0.20854307716514        0.23679210750286        3.56953443303420
16
 energy: 0.143625543127 xtb: 6.7.1 (edcfbbe)
C           -0.74660049312359        0.36980396167529       -0.12761278691125
C            0.03577074774038        0.56825211638257       -1.18055446135230
C            1.48762899351655        0.45703392037281       -1.18583863524819
C            2.27359467069678        0.55317128995246       -0.12048169743325
C            1.31722715998573        1.59721869415587        3.10219286551264
C            0.06174581055776        1.20378554042357        3.16882352866866
H           -0.35597561792230        0.09730331692544        0.83718253980680
H           -1.81796256262096        0.46728262306182       -0.19517136408480
H           -0.40740615183587        0.80151726369142       -2.14237921833903
H            1.92912944072137        0.29601945981300       -2.16211427183729
H            3.34363797202887        0.44903071566918       -0.19348222226986
H            1.88404879239320        0.75383733164426        0.86340543217308
H            2.12924261256318        0.98172565602358        3.45010881991794
H            1.59110618397789        2.55657784370835        2.68777437706877
H           -0.75029797898392        1.81580567864201        2.81610728836745
H           -0.21489067075041        0.24611190185837        3.58203858130549
16
 energy: 0.201830808785 xtb: 6.7.1 (edcfbbe)
C           -0.74698037339947        0.36430899274041       -0.11448620825773
C            0.03361398365993        0.58225488485197       -1.16639637708387
C            1.48412066788222        0.46251680801539       -1.17945567138601
C            2.27773990942804        0.55071723645626       -0.11937939544257
C            1.31783025961492        1.59003728013397        3.08502524466493
C            0.06093232616107        1.20187969235966        3.15600393846557
H           -0.35018831688848        0.05935766390314        0.84414361071948
H           -1.81806161250187        0.47607289872205       -0.17650825407691
H           -0.41346359976327        0.84475172699725       -2.12290788270495
H            1.92173063403034        0.30717375749176       -2.15823588421950
H            3.34604578966779        0.44397839927250       -0.20048314125103
H            1.89049679449052        0.74876430382888        0.86490861608130
H            2.12556044801642        0.97873973274853        3.45890842681010
H            1.59847108209292        2.53980441516663        2.65345592301742
H           -0.74631373794986        1.80962572502601        2.78342650054215
H           -0.22153534559654        0.25449379628566        3.59197932946653
16
 energy: 0.250145278558 xtb: 6.7.1 (edcfbbe)
C           -0.75284794461550        0.37108979084658       -0.11275508043361
C            0.03543685137871        0.57116243722974       -1.15901530671422
C            1.48455815648926        0.46020188399510       -1.17009151130720
C            2.28097308752744        0.54992781331397       -0.11316536101454
C            1.31655840543683        1.59212305367437        3.07695279284251
C            0.06234856967219        1.19779933313494        3.14907858852969
H           -0.35669786362620        0.08508449110229        0.84716616533984
H           -1.82255083056486        0.47870342816739       -0.18130555400593
H           -0.40998426434624        0.81700293989762       -2.11506930409318
H            1.92604251714855        0.31501229414099       -2.15099434272300
H            3.34823438376029        0.45431790428768       -0.20276013878686
H            1.89171707814531        0.73992624445829        0.87256187631358
H            2.12622892429517        0.98206904308705        3.45175403188968
H            1.59487634233731        2.54391182015723        2.66454431741657
H           -0.74803480100686        1.80548370681143        2.77789732296205
H           -0.21685970308675        0.25066112969542        3.56520027912952
16
 energy: 0.203847797120 xtb: 6.7.1 (edcfbbe)
C           -0.75196871414138        0.37028507614149       -0.11148158851084
C            0.03527492985586        0.57163180665627       -1.16100475450316
C            1.48517941074505        0.46074600166088       -1.17257626764618
C            2.28028698166791        0.55082678178115       -0.11323670122772
C            1.31677650555486        1.59348103614016        3.08221174358921
C            0.06192726219711        1.19762048534413        3.14587184425383
H           -0.35752690292956        0.08334183093671        0.84814551225568
H           -1.82112498227217        0.47905274555761       -0.17800654781093
H           -0.41112675717665        0.82032980766945       -2.11621048649836
H            1.92546830250460        0.31339998417844       -2.15214839261220
H            3.34859314267901        0.45507384665174       -0.20008985045064
H            1.89231012276379        0.73882946599240        0.87307833545705
H            2.12572576801817        0.98013131015769        3.44880292802216
H            1.59632434380645        2.54468165031484        2.66216730754370
H           -0.74731356392079        1.80678173931335        2.77789393054583
H           -0.21880694040762        0.24826374550377        3.56658176293743
16
 energy: 0.197832707128 xtb: 6.7.1 (edcfbbe)
C           -0.75036975990218        0.37005930668966       -0.11041707279635
C            0.03521027394847        0.57283597134094       -1.16171065649839
C            1.48549108572581        0.46029315100535       -1.17420144895327
C            2.27909407660256        0.55048363641255       -0.11339733262890
C            1.31735849556202        1.59128684856686        3.08048423978955
C            0.06149679716525        1.19843940078011        3.14470552068825
H           -0.35718202690564        0.08056233158907        0.84858033673786
H           -1.81939920420392        0.47971344304657       -0.17534061881620
H           -0.41229915634215        0.82381712294395       -2.11590820874826
H            1.92498385980079        0.31271082876109       -2.15322944882387
H            3.34822988322525        0.45580036265962       -0.19808954322010
H            1.89228121105910        0.73889175674775        0.87310418353941
H            2.12521146436603        0.97897835044523        3.44839141917400
H            1.59694116766891        2.54485509564452        2.66229357794428
H           -0.74690462441060        1.80814990035478        2.77801692193257
H           -0.22014463441508        0.24759980701202        3.56671690602427
16
 energy: 0.199160274280 xtb: 6.7.1 (edcfbbe)
C           -0.74826098763314        0.36925343880606       -0.10932607511353
C            0.03514397971025        0.57424256983473       -1.16148687004540
C            1.48563413333202        0.46024297415379       -1.17546128485778
C            2.27777089460191        0.55072092130916       -0.11391912396004
C            1.31758918625740        1.58972400579873        3.08069975440906
C            0.06083447426567        1.19996509658969        3.14487582341000
H           -0.35553595770275        0.07623763300617        0.84869569491896
H           -1.81733743210667        0.48130250209586       -0.17220653948484
H           -0.41368711457313        0.82869963048358       -2.11406811609593
H            1.92450843865550        0.31216416104484       -2.15442054450588
H            3.34731784253921        0.45553415682463       -0.19648891332581
H            1.89157089742603        0.73936461840743        0.87271525358817
H            2.12507073554843        0.97621911096759        3.44647318464385
H            1.59759876111044        2.54323519624154        2.66170750520452
H           -0.74674501108258        1.80961640574106        2.77733450722413
H           -0.22147393140393        0.24795489269521        3.56487451933538
16
 energy: 0.205144830933 xtb: 6.7.1 (edcfbbe)
C           -0.74607481568765        0.36832031054915       -0.10766266322336
C            0.03507182691636        0.57665192538581       -1.16029254271540
C            1.48557991829488        0.46040010082885       -1.17636488598067
C            2.27680285263211        0.55084974741123       -0.11458963594218
C            1.31789873674868        1.58698926814220        3.07883476305747
C            0.06022385000764        1.20031061735369        3.14244036776907
H           -0.35277274795056        0.06950160198045        0.84843496313562
H           -1.81521923826862        0.48331908998654       -0.16794789673029
H           -0.41519266557883        0.83605659128876       -2.11073976213998
H            1.92380154443145        0.31161664229842       -2.15564026799813
H            3.34640258392886        0.45450884223066       -0.19545099442898
H            1.89043842926689        0.74068584566499        0.87181730368068
H            2.12462304003246        0.97236649996918        3.44466118555958
H            1.59880911824968        2.54084315325503        2.66199145011477
H           -0.74672651037933        1.81248147277888        2.77755568440674
H           -0.22366701369935        0.24957560487620        3.56295170677987
16
 energy: 0.216882177033 xtb: 6.7.1 (edcfbbe)
C           -0.74322339967205        0.36643659789420       -0.10418048433711
C            0.03487201727116        0.58182807393611       -1.15731755982366
C            1.48514202436976        0.46106914279202       -1.17722331330594
C            2.27634914726119        0.55089393307569       -0.11569780111776
C            1.31812018276156        1.58299391351182        3.07668774411831
C            0.05878171162567        1.20178949645601        3.14055207677918
H           -0.34771698181312        0.05639252134574        0.84767037358869
H           -1.81223299312694        0.48647605152057       -0.15959751607273
H           -0.41744100607902        0.85120720003766       -2.10397030810438
H            1.92186743645892        0.31065110019430       -2.15719442926704
H            3.34567833366761        0.45199076769661       -0.19495589441294
H            1.88902417106183        0.74369416798789        0.86987896610175
H            2.12307835681425        0.96395787369924        3.43993635562230
H            1.60227484692736        2.53597941458773        2.66137891709375
H           -0.74601097693773        1.81751683624291        2.77621779008675
H           -0.22856396164577        0.25160022302156        3.55781385839564
16
 energy: 0.245688102963 xtb: 6.7.1 (edcfbbe)
C           -0.73859665204645        0.36212794417582       -0.09657002815347
C            0.03423349575836        0.59343990363689       -1.15032291416555
C            1.48376497101627        0.46336125193829       -1.17803739599517
C            2.27688534467225        0.55165677340653       -0.11789979636406
C            1.31861602940407        1.57401483298250        3.07066339164976
C            0.05592785929597        1.20368614687169        3.13388856038595
H           -0.33822598340675        0.02892664421364        0.84583819278707
H           -1.80696269155422        0.49201055919912       -0.14172369740533
H           -0.42145522867095        0.88471240167012       -2.08918536203602
H            1.91632320406369        0.30853764990315       -2.15925158598352
H            3.34549515572573        0.44593014929376       -0.19566366143209
H            1.88845727382360        0.74978160724895        0.86626482189829
H            2.11832580852848        0.94595273274952        3.43062088033721
H            1.61098531554839        2.52648533501343        2.66023587534329
H           -0.74353741838959        1.82882975965359        2.77332949157111
H           -0.24023757482415        0.25502362204299        3.54781200290728
16
 energy: 0.276107820053 xtb: 6.7.1 (edcfbbe)
C           -0.73617462776120        0.35872746438419       -0.08911655578892
C            0.03332466683415        0.60579752205942       -1.14178724842580
C            1.48169312947567        0.46594552019175       -1.17676207603993
C            2.27933088278360        0.55151079286562       -0.11969573484304
C            1.31883273070060        1.56562886048226        3.06514081087971
C            0.05316122494728        1.20550553451822        3.12736703975162
H           -0.33139119659960        0.00363960594367        0.84346751560794
H           -1.80373405360340        0.49531249794925       -0.12548083845779
H           -0.42393841506042        0.91719340776827       -2.07350690585409
H            1.90913669793277        0.30741410414336       -2.15963135158175
H            3.34691652349728        0.43974798627171       -0.19983805931703
H            1.89221599462278        0.75600288015473        0.86368650525577
H            2.11254958086568        0.92809143848491        3.42205394377790
H            1.62059097433924        2.51693298467741        2.65865217105262
H           -0.74027895889476        1.83923888854637        2.76846561609441
H           -0.25223624513494        0.25778782555881        3.53698394323306
16
 energy: 0.306214303973 xtb: 6.7.1 (edcfbbe)
C           -0.73602548824736        0.35512368714934       -0.08252600626232
C            0.03206626757977        0.61632220789479       -1.13297734973124
C            1.47941792658389        0.47006650612077       -1.17407409146027
C            2.28328921529590        0.55279925458766       -0.12125396796806
C            1.31906496038629        1.55774345846166        3.06000966980486
C            0.05072847203295        1.20681453570052        3.12001852873797
H           -0.32838195722904       -0.01621103847063        0.84174624123959
H           -1.80276417121676        0.49735055325563       -0.11196333003428
H           -0.42516466190999        0.94542530022232       -2.05844879346905
H            1.90106066581775        0.30743638228703       -2.15865232163730
H            3.34962896326442        0.43334284962768       -0.20675638231422
H            1.90081816400624        0.75993804167142        0.86325706566639
H            2.10653299119580        0.91231991163786        3.41607203039535
H            1.62988972114315        2.50808644993223        2.65736672381628
H           -0.73683472598974        1.84787011504170        2.76175294260416
H           -0.26332743376853        0.26004909887997        3.52642781595678
16
 energy: 0.339150438826 xtb: 6.7.1 (edcfbbe)
C           -0.73676308221724        0.35417890833130       -0.07549613442750
C            0.03058238346366        0.62737920837273       -1.12341621245105
C            1.47702172452040        0.47308370645264       -1.17042409312369
C            2.28770651359734        0.55160176473216       -0.12245874938823
C            1.31939173481644        1.54996541686091        3.05598154217957
C            0.04841626781827        1.20790541610500        3.11136128460791
H           -0.32814522110316       -0.03451138405616        0.84121573312997
H           -1.80309217799144        0.49839678127769       -0.10052473356982
H           -0.42628644059419        0.97069386470916       -2.04361054443090
H            1.89244442741701        0.30972142209180       -2.15730541563987
H            3.35308354506649        0.42895531445564       -0.21594110951420
H            1.91337522645226        0.76302249452254        0.86426805232194
H            2.10063446672121        0.89752187700699        3.41223641513383
H            1.63879432990103        2.49906530390619        2.65619108638874
H           -0.73335812886009        1.85525226890809        2.75258716132106
H           -0.27380666006322        0.26224495032321        3.51533449280684
16
 energy: 0.365250585182 xtb: 6.7.1 (edcfbbe)
C           -0.73786637525976        0.35199687003912       -0.07019653501804
C            0.02920412465376        0.63359498509292       -1.11583688153385
C            1.47526910376075        0.47706813494842       -1.16732695840459
C            2.29141351724032        0.55212546519510       -0.12360149560990
C            1.31975464522908        1.54374252722189        3.05324935417644
C            0.04678985767337        1.20859219128907        3.10384182311103
H           -0.32970262345186       -0.04500705334808        0.84254243730850
H           -1.80393358336298        0.50068667758997       -0.09263232805447
H           -0.42753306178290        0.98770316669629       -2.03206612160091
H            1.88585522058560        0.31355520043827       -2.15620331231885
H            3.35593358831543        0.42569517549276       -0.22431416352740
H            1.92521202043125        0.76209500361826        0.86638430833427
H            2.09627366897793        0.88724421071190        3.41200908068259
H            1.64509112140724        2.49179704505380        2.65577448603589
H           -0.73057831716882        1.85948960940142        2.74250187712078
H           -0.28118399830363        0.26409810455876        3.50587320464308
16
 energy: 0.388308230009 xtb: 6.7.1 (edcfbbe)
C           -0.73781936285905        0.35192775412744       -0.06469758988849
C            0.02808763480079        0.63937960346665       -1.10934393108842
C            1.47397156477780        0.48043398746828       -1.16548234354200
C            2.29387706009226        0.55184381095838       -0.12475885338002
C            1.32020380092419        1.53825207191654        3.05160890873212
C            0.04550512522066        1.20883928567790        3.09637336963163
H           -0.33059523957302       -0.05419656996689        0.84491847531487
H           -1.80374363938092        0.50326484509455       -0.08564663631187
H           -0.42980205944203        1.00061195355710       -2.02220045883344
H            1.88095500951170        0.31876921751035       -2.15626288511569
H            3.35782688255973        0.42389825476545       -0.23073276076598
H            1.93392733783700        0.75907015085761        0.86803787870182
H            2.09281829778695        0.87889637414500        3.41369551995280
H            1.65033097111564        2.48512791828345        2.65563095380951
H           -0.72801032806795        1.86248326027851        2.73170181858308
H           -0.28753414635896        0.26587539585959        3.49715730954460
16
 energy: 0.404002659762 xtb: 6.7.1 (edcfbbe)
C           -0.73766480950243        0.35206802751750       -0.06000347178952
C            0.02721672412398        0.64223226898442       -1.10425633680285
C            1.47303223017952        0.48349428039422       -1.16431620280278
C            2.29547485964348        0.54948556384191       -0.12548987284813
C            1.32063295702596        1.53426398350432        3.05167951560651
C            0.04494749949755        1.20819569345089        3.08895110259004
H           -0.33201254965413       -0.05591261351634        0.84879560257619
H           -1.80342230935490        0.50585030810892       -0.08079051715041
H           -0.43249045823004        1.00649257993900       -2.01470973640135
H            1.87790363010199        0.32799353212476       -2.15704008284332
H            3.35922348407752        0.42418494582489       -0.23606219604524
H            1.94016162265261        0.75245676044241        0.86984497266169
H            2.09003976631270        0.87433423894482        3.41965131282937
H            1.65438867390136        2.47960324674816        2.65591827311631
H           -0.72513662223997        1.86257036789646        2.71832184932081
H           -0.29229578959044        0.26716412979350        3.48950456332716
16
 energy: 0.434015023866 xtb: 6.7.1 (edcfbbe)
C           -0.73542846149276        0.35188560841107       -0.05116326720848
C            0.02589319135752        0.65049826938370       -1.09590419632878
C            1.47127995123414        0.48940648016729       -1.16355785726149
C            2.29743057791455        0.54783678587676       -0.12723283856778
C            1.32144884257372        1.52607546523457        3.04980721074282
C            0.04322902559943        1.20809733734564        3.07753607534222
H           -0.32885196217822       -0.06859433960829        0.85266793191456
H           -1.80089576001437        0.51030775495775       -0.06750882596047
H           -0.43755430016932        1.02569629444127       -2.00082748790580
H            1.87215958918109        0.33977155401442       -2.15897284759879
H            3.36072732498032        0.42139346857212       -0.24191972069305
H            1.94578836943919        0.74440221947830        0.87070252260324
H            2.08449092858433        0.86218374045752        3.42471608833192
H            1.66352016259964        2.46921814357030        2.65575198761977
H           -0.72006389923524        1.86653684993230        2.69945810304122
H           -0.30317467142925        0.26976168176513        3.47644589727332
16
 energy: 0.435760995000 xtb: 6.7.1 (edcfbbe)
C           -0.73404706972198        0.35485531777508       -0.04706480501101
C            0.02535116997059        0.65248811376806       -1.09324633634113
C            1.47055373113524        0.49456044902137       -1.16401216398192
C            2.29736136596594        0.54574656833500       -0.12767862701226
C            1.32186503700551        1.52357086687765        3.05168791839571
C            0.04346953057089        1.20665670106203        3.07081349679307
H           -0.32661681597688       -0.06535229675908        0.85607025452646
H           -1.79950638186571        0.51104381718505       -0.06264295238755
H           -0.44089028105484        1.02453886711364       -1.99696410506758
H            1.87119102791902        0.35385375075530       -2.16086117165671
H            3.36070768049277        0.42147056244713       -0.24336084548712
H            1.94448354744255        0.73101896847156        0.87195241371344
H            2.08142865552681        0.86072753178469        3.43533196698899
H            1.66803765971611        2.46434361287589        2.65605477761336
H           -0.71575261313427        1.86424522696018        2.68320889382980
H           -0.30763733504698        0.27070925632631        3.47071006042884
16
 energy: 0.441386385378 xtb: 6.7.1 (edcfbbe)
C           -0.73201542439759        0.35377631108126       -0.04270248105558
C            0.02448099830955        0.65775030757012       -1.08983660565083
C            1.46929985224580        0.49959083122272       -1.16432829536367
C            2.29712993216794        0.54169109852986       -0.12799269452627
C            1.32246909748482        1.51873820095465        3.05182367443093
C            0.04280852419667        1.20632972319502        3.06362693789102
H           -0.32049056380123       -0.06972357590058        0.85672954270479
H           -1.79726395801543        0.51198678684310       -0.05254240926887
H           -0.44423361569019        1.03582654029341       -1.99040230064943
H            1.86856362826751        0.36747361862321       -2.16274580284395
H            3.36047190967594        0.41981335531777       -0.24432755337733
H            1.94268840102957        0.72157989213187        0.87207658299351
H            2.07666554893488        0.85360819442036        3.44192978482557
H            1.67567148325110        2.45688778707053        2.65547195851572
H           -0.71075522897188        1.86620808735234        2.66903068698814
H           -0.31549167574271        0.27294015529419        3.46418774973060
16
 energy: 0.436650717430 xtb: 6.7.1 (edcfbbe)
C           -0.73173156946921        0.35359641496202       -0.04273449592710
C            0.02396589196651        0.66003390535612       -1.08968689967694
C            1.46874024288119        0.50218133528202       -1.16424913288455
C            2.29664069483364        0.54069629613580       -0.12777601346049
C            1.32281279940725        1.51704344048678        3.05199863656299
C            0.04259527464532        1.20693868540403        3.06270237623397
H           -0.31742325333492       -0.07187179495943        0.85450854020140
H           -1.79701510445938        0.51013290960462       -0.04987904623739
H           -0.44452229742116        1.04012559555310       -1.98955731830997
H            1.86786596513545        0.37316644039134       -2.16291803537634
H            3.35992789948701        0.41830805136559       -0.24404475691868
H            1.94145495424722        0.71728197563103        0.87264225050784
H            2.07464502789270        0.85083106262736        3.44435156072040
H            1.67891599189330        2.45386064851913        2.65483750251498
H           -0.70879317353123        1.86756467278019        2.66572539125081
H           -0.31808043522890        0.27458767486010        3.46407821614343
