16
 energy: 0.000000000000 xtb: 6.7.1 (edcfbbe)
C           -0.77705358962067        1.00256531388960       -0.37427006004611
C            0.00803256125606       -0.06812763652329       -0.41521319054704
C            1.46197102642616       -0.06812564178421       -0.41521217663121
C            2.24705442695429        1.00256929403646       -0.37426771729741
C            1.39307066534339        1.26847997603248        2.85079349949180
C            0.07692556821269        1.26848872121441        2.85080241843411
H           -0.38376941678460        2.00369806429917       -0.34107369651756
H           -1.85021732606258        0.91469753527342       -0.37351699803135
H           -0.44762220569676       -1.05037115376285       -0.44792896061413
H            1.91762851892125       -1.05036787095517       -0.44792786529427
H            3.32021831764553        0.91470438222659       -0.37351370286549
H            1.85376766457729        2.00370085525613       -0.34107228876692
H            1.96396422140850        0.35981624292725        2.94334122046779
H            1.96586732819686        2.17645147372874        2.75784402536034
H           -0.49586098536360        2.17646660814987        2.75785888081288
H           -0.49397786647237        0.35983114999089        2.94335538738743
16
 energy: -0.000142092742 xtb: 6.7.1 (edcfbbe)
C           -0.77772194349478        1.00204087045969       -0.36978301605850
C            0.00810722551843       -0.06788783480812       -0.41515952499322
C            1.46162415705471       -0.06733278200393       -0.41512361007085
C            2.24753865959788        1.00269327452848       -0.37029337109626
C            1.39321997994524        1.26862896596892        2.84728827217441
C            0.07705521276486        1.26831835280551        2.84752866291119
H           -0.38491032798819        2.00237288797636       -0.33285841640583
H           -1.85044963584709        0.91420255564453       -0.37073869936181
H           -0.44736459547937       -1.04955902714108       -0.45304627742307
H            1.91743981840337       -1.04884214011680       -0.45274738484044
H            3.32017151869917        0.91298809884569       -0.36869930686584
H            1.85566263448812        2.00403806460316       -0.33659269486706
H            1.96419527573544        0.35978206855776        2.93965253961851
H            1.96515215718378        2.17718287891437        2.75504717223994
H           -0.49570793289511        2.17600072199054        2.75722561330819
H           -0.49401329474502        0.35985035777441        2.93829881707348
16
 energy: -0.000430644977 xtb: 6.7.1 (edcfbbe)
C           -0.77892442158947        1.00151832943319       -0.36083072760207
C            0.00796603925351       -0.06725122461029       -0.41678813022055
C            1.46136972099754       -0.06606369531701       -0.41607127835397
C            2.24846470624272        1.00281380827024       -0.36232836393237
C            1.39330789427294        1.26887218806309        2.83935629073503
C            0.07713231897022        1.26791161011529        2.84012251927272
H           -0.38672884943255        2.00169684037087       -0.31249380295925
H           -1.85161998952399        0.91280156663897       -0.36277805427042
H           -0.44696758931596       -1.04883695237388       -0.46416362422799
H            1.91721621014487       -1.04725393217561       -0.46110592478923
H            3.32090674200028        0.91051477009477       -0.35811255977473
H            1.85862063200844        2.00478199515032       -0.32309293471537
H            1.96473889863553        0.36007880921322        2.92910388733352
H            1.96430405176916        2.17815116538026        2.74863299222085
H           -0.49597367627586        2.17572117798161        2.75308562445982
H           -0.49381377921589        0.35902085776443        2.92746286216684
16
 energy: 0.001781718805 xtb: 6.7.1 (edcfbbe)
C           -0.78025679929674        1.00104849833304       -0.34638433441235
C            0.00782431300036       -0.06613946815940       -0.41902795140764
C            1.46120857996067       -0.06453754719479       -0.41703194524979
C            2.24962709994872        1.00282563053384       -0.34926926034242
C            1.39330615227183        1.26911352636342        2.82605032756467
C            0.07711541289986        1.26724450828574        2.82768788994018
H           -0.38918462934829        2.00096591715323       -0.28116379330561
H           -1.85287630172939        0.91105807119799       -0.34978868269933
H           -0.44636275143160       -1.04750451729383       -0.48147298427248
H            1.91676887661383       -1.04542822230881       -0.47292811721982
H            3.32188068119044        0.90798270503586       -0.34241909823880
H            1.86199480875441        2.00533101145498       -0.30097462253256
H            1.96548038197591        0.36043519771466        2.91216426661285
H            1.96338716810761        2.17925470162277        2.73816760070926
H           -0.49656303614517        2.17509874068878        2.74495424976144
H           -0.49335104783091        0.35772856057197        2.91143523043523
16
 energy: 0.018399392925 xtb: 6.7.1 (edcfbbe)
C           -0.78214916685362        1.00043522698865       -0.31955268306175
C            0.00769421811235       -0.06399443059505       -0.42239822987293
C            1.46104912571799       -0.06200993189669       -0.41798688743381
C            2.25139308220772        1.00280539745135       -0.32485696156749
C            1.39326389724729        1.26933737498010        2.80084140818817
C            0.07704209653585        1.26592412458851        2.80413009503189
H           -0.39300575067304        1.99966975830819       -0.22392871522111
H           -1.85464434693115        0.90840732679251       -0.32533782326952
H           -0.44538743798599       -1.04467200307675       -0.51254083057103
H            1.91600033723030       -1.04234179802577       -0.49345202960489
H            3.32338331462754        0.90439590636369       -0.31390355603155
H            1.86689332147058        2.00585584659915       -0.25941763240677
H            1.96668484587181        0.36085617848127        2.88079015772789
H            1.96196271183300        2.18078307014286        2.71729112791536
H           -0.49771517450699        2.17368782673490        2.72790946968764
H           -0.49246616496199        0.35533744016253        2.88241186583268
16
 energy: 0.111010441033 xtb: 6.7.1 (edcfbbe)
C           -0.78462304024988        0.99956834935723       -0.27377848036619
C            0.00761889530991       -0.06001915937766       -0.42675597062677
C            1.46087200957050       -0.05777935422621       -0.41825204673956
C            2.25383052820262        1.00276860612092       -0.28306385432926
C            1.39318278107712        1.26926216828737        2.75685346544110
C            0.07689419120945        1.26343021423385        2.76302983349699
H           -0.39848464278328        1.99695864511235       -0.12839566926012
H           -1.85692674938920        0.90462880551649       -0.28335230894595
H           -0.44395584982602       -1.03885600013134       -0.56305805705433
H            1.91484629137573       -1.03691964451128       -0.52611784137857
H            3.32543852230450        0.89940082530636       -0.26589277529882
H            1.87363444836426        2.00612843113730       -0.18867523679516
H            1.96851829420895        0.36119097132262        2.82796136162270
H            1.95983272674337        2.18257766540386        2.67924826968083
H           -0.49966398224943        2.17084131228187        2.69617000894162
H           -0.49101551492675        0.35129547816566        2.83407807695422
16
 energy: 0.507716010779 xtb: 6.7.1 (edcfbbe)
C           -0.78727926045098        0.99813195134688       -0.20738158444474
C            0.00766557139203       -0.05318954726800       -0.43072889864583
C            1.46060034477192       -0.05103444912495       -0.41646413872948
C            2.25658464093210        1.00264641177671       -0.22240943057757
C            1.39311342205384        1.26839946912447        2.69138433362579
C            0.07667359512088        1.25929589492022        2.70192236210424
H           -0.40531874971414        1.99100691451124        0.00579189457814
H           -1.85932742211393        0.89973834616382       -0.22176609147548
H           -0.44210312753100       -1.02768544608500       -0.63158956729978
H            1.91335667971135       -1.02764168844613       -0.56974681052417
H            3.32764931138618        0.89281470824496       -0.19636200843918
H            1.88185234637929        2.00550481464850       -0.08730679071769
H            1.97097864856036        0.36112394893873        2.75218605475532
H            1.95704067488625        2.18404072908729        2.62051540259982
H           -0.50242648338097        2.16592443237287        2.64680951963189
H           -0.48906128306101        0.34540082378774        2.76514452890141
16
 energy: 1.535335186121 xtb: 6.7.1 (edcfbbe)
C           -0.78931023158340        0.99480308570511       -0.13381700788576
C            0.00791104229173       -0.04344806164024       -0.43545153088560
C            1.46008588927650       -0.04197592744446       -0.41480193311416
C            2.25882874178671        1.00147837491086       -0.15547885969069
C            1.39319967255969        1.26755501215108        2.61831277782928
C            0.07642110067756        1.25459350558451        2.63462769261769
H           -0.41252187180318        1.97863672644066        0.15071648434576
H           -1.86108206654377        0.89319191699933       -0.15202715840220
H           -0.43999600463056       -1.00937224952933       -0.70786999191427
H            1.91172369202003       -1.01378342467272       -0.61881259254867
H            3.32915352958999        0.88390295549074       -0.11768810765142
H            1.89040353957204        2.00225524565115        0.02371189497379
H            1.97395032528726        0.36148955020097        2.66816155079768
H            1.95387101373369        2.18595831619850        2.55593815140473
H           -0.50576515681135        2.16010586727444        2.59474392410606
H           -0.48687430648044        0.33908642067867        2.68973348136037
16
 energy: 3.477492687750 xtb: 6.7.1 (edcfbbe)
C           -0.79057002215937        0.98928384402661       -0.06161679202156
C            0.00837473094312       -0.03059915537599       -0.43942081355225
C            1.45923747162711       -0.03038159935659       -0.41287359662715
C            2.26022237893090        0.99923866645892       -0.08848964666600
C            1.39362755809366        1.26663665899663        2.54375231718572
C            0.07623584933152        1.24933372545352        2.56745740588106
H           -0.41962505414463        1.95916335619168        0.28776754927128
H           -1.86205052665919        0.88470471727899       -0.07788291107414
H           -0.43777191816282       -0.98295865695382       -0.78060343039930
H            1.91013968140424       -0.99455068477168       -0.66762815824423
H            3.32950524055689        0.87245933853099       -0.03429780041615
H            1.89874800404305        1.99605411180716        0.13308302263314
H            1.97751902066545        0.36214413878133        2.58120979801959
H            1.95042932997895        2.18816866245256        2.49086217966495
H           -0.50941740634173        2.15331852906183        2.54587016505956
H           -0.48460542916435        0.33246166141705        2.61280948662798
16
 energy: 6.659986948269 xtb: 6.7.1 (edcfbbe)
C           -0.79155925243116        0.98231772002146        0.00621682909810
C            0.00908065487061       -0.01453633350691       -0.44010105232407
C            1.45800118495785       -0.01574454760109       -0.40873817332639
C            2.26089419661562        0.99666134379388       -0.02156724605713
C            1.39464418544993        1.26488687078469        2.46692331442864
C            0.07629132750954        1.24267286873817        2.50007204438919
H           -0.42692368776327        1.93460363131332        0.40748609154741
H           -1.86268300697072        0.87389860387681        0.00295547572195
H           -0.43545684671766       -0.94904472737836       -0.84034020532644
H            1.90874198990594       -0.96941113081025       -0.71094360215165
H            3.32858052367100        0.85845255745748        0.05634182135601
H            1.90711293122903        1.98798174591473        0.23698664134205
H            1.98199005445812        0.36240587800903        2.48948246776349
H            1.94664513563180        2.18997107318567        2.42340113731665
H           -0.51309984586904        2.14462044006567        2.49940818286671
H           -0.48226063560454        0.32474132013485        2.53241504869792
16
 energy: 10.614936300875 xtb: 6.7.1 (edcfbbe)
C           -0.78974366480226        0.96011194062974        0.06996091544552
C            0.01120707047233        0.02139328884947       -0.44872060940543
C            1.45425855070821        0.01650215020446       -0.41096970169525
C            2.25731461428656        0.98534612737699        0.05118453469716
C            1.39888807802698        1.26473992148825        2.38356447744891
C            0.07703343530609        1.23335404126021        2.43554178116420
H           -0.44016421252692        1.86689371332613        0.49872743660413
H           -1.86055139508763        0.84419631220982        0.11366782656804
H           -0.42970837286755       -0.86563541659986       -0.90260604578199
H            1.90645280332545       -0.90799588781661       -0.76281562438884
H            3.31995729653744        0.82080799287107        0.18572411692197
H            1.92147663814788        1.96192903688164        0.32846589289719
H            1.99139839169897        0.36760591291837        2.37591508100703
H            1.93981757616059        2.19769307239067        2.36387170957333
H           -0.51791628242751        2.13056597381854        2.48308238457206
H           -0.47972161801527        0.31696913419019        2.43540459971429
16
 energy: 20.475011902629 xtb: 6.7.1 (edcfbbe)
C           -0.80001267470692        0.93435106535580        0.12934327567513
C            0.01287454325077        0.05529239752164       -0.50257311137023
C            1.45137148307461        0.05039000692952       -0.44284278583821
C            2.26090527481506        0.97187202943551        0.14037755423510
C            1.40401108555570        1.27168592560949        2.31612010674283
C            0.08015304916919        1.22675138237748        2.38301044484981
H           -0.46024633223405        1.81300225596831        0.65291595673996
H           -1.86761378047667        0.79356852032952        0.23063317314177
H           -0.42394537966642       -0.79019019114901       -1.01840264257445
H            1.90535982379628       -0.84676878165519       -0.83475888978579
H            3.31144048680934        0.76409245875330        0.34041775329162
H            1.94849375164679        1.94670828297049        0.41544180281391
H            2.00403657159523        0.38187214414099        2.26547321428803
H            1.92877498869100        2.21384265492962        2.31316325662947
H           -0.51988621256508        2.11542280240876        2.47626441132825
H           -0.47571776981116        0.31258436007279        2.33541525517506
16
 energy: 26.750852882066 xtb: 6.7.1 (edcfbbe)
C           -0.81134110707597        0.90490978390022        0.16464812649034
C            0.01478210479415        0.09632976421777       -0.50714865813513
C            1.44791170776699        0.08976778512880       -0.45197459815447
C            2.26302464084786        0.95424338030529        0.16435540372489
C            1.41086405473575        1.28259234670094        2.29551294751154
C            0.08482253524350        1.22089820568785        2.37551660679528
H           -0.49145883532645        1.74891175791255        0.67987781969796
H           -1.87156495304550        0.72788368297420        0.30242545733109
H           -0.41780021435200       -0.70842793834536       -1.13974729572188
H            1.90560700847948       -0.78354142458903       -0.91434142828655
H            3.29519018287432        0.68876812763580        0.45621073866935
H            1.98684347489475        1.93940586771163        0.44449601169803
H            2.01878174152011        0.40474852589160        2.22050835289446
H            1.91525805684334        2.23700785926037        2.31346892292951
H           -0.52099598902239        2.09990895891831        2.51834609635231
H           -0.46992550023417        0.31107063068808        2.27784427154552
16
 energy: 29.079847151128 xtb: 6.7.1 (edcfbbe)
C           -0.83165364488142        0.87147866836561        0.13994816116047
C            0.01449872872460        0.13415522121887       -0.59454901913875
C            1.44491184721154        0.12543083296534       -0.50445295090512
C            2.27335299946987        0.93276878223339        0.19412958929813
C            1.41647238475895        1.30029261500414        2.31393699015143
C            0.09045502463183        1.21803445538835        2.39892929234207
H           -0.53227479618755        1.69266067214336        0.74072215129254
H           -1.88078568287037        0.65076968413715        0.33557657889831
H           -0.40512486247767       -0.62806934834511       -1.21734547560089
H            1.90027791772826       -0.72669257347992       -0.98582168291597
H            3.27818934969901        0.60830453842586        0.52266179586811
H            2.04139768855143        1.93562479842473        0.44709668134085
H            2.03364885606607        0.43673859909486        2.23322940324544
H            1.89929009602731        2.26595453585763        2.33948914462613
H           -0.52229925807354        2.08250712146722        2.56921863977301
H           -0.46035773943457        0.31451871109752        2.26722947590650
16
 energy: 29.399154657208 xtb: 6.7.1 (edcfbbe)
C           -0.86261624026778        0.82930268965651        0.13852825601410
C            0.01171385116847        0.17713896517595       -0.67021678969809
C            1.44440954164149        0.16604947332628       -0.55879197709902
C            2.28993667803226        0.90386001178139        0.21961941302766
C            1.41993919745013        1.33017085069910        2.37179541154598
C            0.09872587286217        1.21838279424611        2.45221391552994
H           -0.58435933210673        1.62655556211078        0.81218652179462
H           -1.89051803087808        0.55331126349248        0.28555536116235
H           -0.39143682291558       -0.54268418744706       -1.36928187851375
H            1.89309686599736       -0.66626993119813       -1.07591932330379
H            3.24932989371338        0.50916071239139        0.51214666300724
H            2.12156843567918        1.93738517166016        0.44599058718230
H            2.05179906248992        0.48332675559217        2.30436958821922
H            1.87673654418335        2.30662581768011        2.38958237807250
H           -0.52621439577205        2.05960894688471        2.63800937506568
H           -0.44211221233384        0.32255241794702        2.30421127333542
16
 energy: 27.339970732686 xtb: 6.7.1 (edcfbbe)
C           -0.89315990657809        0.78359081327184        0.09074514035921
C            0.00516978335142        0.22066135634452       -0.72114403559740
C            1.44421942183967        0.21070078069134       -0.59748208347410
C            2.30099738045806        0.88041672718557        0.17779320790255
C            1.42152442213112        1.36535598846480        2.44212219759870
C            0.10895981075192        1.21790468856664        2.52481927965887
H           -0.63181565754299        1.54920502102082        0.84399926162416
H           -1.90198122969555        0.45623136909917        0.18372823540895
H           -0.37638670461850       -0.45234623932428       -1.47341991461378
H            1.88641013420808       -0.60431848204108       -1.14733730962042
H            3.21677929655178        0.40828776550163        0.47718487815247
H            2.20319587122826        1.94036324589188        0.45239930605551
H            2.07742529105903        0.53219036829575        2.39346976878178
H            1.85137631031290        2.35269709639528        2.44968398897356
H           -0.53867489155115        2.03313787751206        2.72454627529662
H           -0.41404042296254        0.32039893712308        2.37889057883575
16
 energy: 27.653991103275 xtb: 6.7.1 (edcfbbe)
C           -0.92161980215430        0.73720059070174        0.10830604694666
C           -0.00080011525262        0.26461237654351       -0.78579587111276
C            1.44454882273074        0.25599310662560       -0.66798976324653
C            2.31494023995409        0.86429291522563        0.16495763147068
C            1.42267221496633        1.40491444702502        2.50640226082551
C            0.11911884117731        1.22059421028408        2.59901536974672
H           -0.67810374875895        1.45257326932207        0.80767993434051
H           -1.92143896698850        0.37632421801241        0.10355091574709
H           -0.35793226716828       -0.35996398376138       -1.58463416118624
H            1.87441737737781       -0.54793745746421       -1.23720977096910
H            3.19911521397945        0.32337265200637        0.46619394569572
H            2.26853776414388        1.92201078708640        0.48688358938758
H            2.10783025538495        0.58075187853858        2.45161124328317
H            1.82902850156937        2.40256083233952        2.51275571903747
H           -0.55990341299686        2.01205257980957        2.81670183625556
H           -0.38041200902119        0.30512489170407        2.45156984912051
16
 energy: 26.059973358590 xtb: 6.7.1 (edcfbbe)
C           -0.92846478069207        0.70444700228454        0.05867845781645
C           -0.00352967037511        0.29200918332332       -0.81474237559604
C            1.44402575127427        0.28433743043401       -0.68104659359311
C            2.31934428213486        0.85867305974065        0.18764401167593
C            1.42563506249579        1.43543548456086        2.54221408119268
C            0.12711682544773        1.22463262232806        2.64614585815574
H           -0.69903610083539        1.37507381002479        0.87391034554371
H           -1.93164209604043        0.33642562675693        0.03672813824162
H           -0.35118006042866       -0.29790404867757       -1.70534110822313
H            1.86536936799810       -0.51491005864842       -1.30056213300958
H            3.19132825901037        0.29131946475118        0.45403241924751
H            2.27986971815163        1.88254394679537        0.50924126203536
H            2.13047967468045        0.61840792073536        2.46652053558151
H            1.81924242357513        2.43969321239691        2.55917424210264
H           -0.57843957147474        1.99905239472427        2.86916046929567
H           -0.35012017597879        0.28524026246877        2.49824116487564
16
 energy: 21.539237616516 xtb: 6.7.1 (edcfbbe)
C           -0.91903721060568        0.68518520069406        0.02871802915432
C           -0.00006129242032        0.31064007066700       -0.85404079645057
C            1.44946161146245        0.29632453538815       -0.69149456271370
C            2.31624992830178        0.85773894366338        0.12696806767152
C            1.41978631165904        1.45906713239234        2.57929229226875
C            0.12840119217231        1.22801682647977        2.67936851609827
H           -0.69295341948268        1.29907723440562        0.92138983704773
H           -1.93204003109386        0.35147464852720       -0.04802552058687
H           -0.34387275531493       -0.25277132064950       -1.72375266736835
H            1.85905289344531       -0.50572776892194       -1.29930792250918
H            3.18927569497511        0.29554477788218        0.37895077550320
H            2.25795606446113        1.83154500353776        0.54951969379556
H            2.13244715486944        0.64982005894925        2.49584874433647
H            1.81428002937148        2.46061492016762        2.60226313934829
H           -0.59959490047286        1.98452653297175        2.87494862634231
H           -0.31935236238469        0.26340051784437        2.57935252340493
16
 energy: 18.864438254069 xtb: 6.7.1 (edcfbbe)
C           -0.91817197589690        0.64463474816804        0.00023581760383
C           -0.00034491058914        0.34263281766895       -0.90409345894300
C            1.44759927213835        0.32027526303729       -0.75782605563416
C            2.31950033523053        0.85112416308931        0.09805131727337
C            1.41695043063711        1.49084166857703        2.62554064709847
C            0.13247530664609        1.23113074747087        2.72320091546840
H           -0.70273642523314        1.17794859873667        0.93640659864627
H           -1.94091592058968        0.34826516437788       -0.11136084124006
H           -0.33330590303599       -0.17416536198311       -1.79029029823381
H            1.84716574551241       -0.47883235414723       -1.35914534447574
H            3.19499987409927        0.27585957228231        0.31870167831565
H            2.25396930252002        1.78481820933187        0.65478898704552
H            2.13681815821695        0.69736511096677        2.54547037799902
H            1.80465820793609        2.49274941865227        2.64281614266586
H           -0.62136385774024        1.96396466588729        2.89408328311074
H           -0.27729873090882        0.24586488188281        2.68341900864236
16
 energy: 15.865241295560 xtb: 6.7.1 (edcfbbe)
C           -0.90199321267966        0.60417187029929        0.00793331114194
C            0.00350436046121        0.37405988008925       -0.94217399317028
C            1.44939522247921        0.33228948682101       -0.77566563547555
C            2.31807210893456        0.84858289807007        0.09666301655722
C            1.40996604282320        1.51927565014733        2.67600696297256
C            0.13131321004308        1.23317995214046        2.76629602394761
H           -0.68892079573878        1.02522940168150        0.93770077104714
H           -1.94871615712238        0.39727742248642       -0.16342543384931
H           -0.32989347374611       -0.08161493566647       -1.86088812759507
H            1.84512057470693       -0.46560469926258       -1.41899699545325
H            3.22306747674827        0.29365794223997        0.23922893753825
H            2.20023542004518        1.70545305812699        0.68621449446588
H            2.13384875209152        0.74119573442932        2.59832635549288
H            1.79291501257052        2.52124158030358        2.66932630328232
H           -0.64868273468820        1.94581361977373        2.88946049515109
H           -0.22923289798573        0.22026845231917        2.79399228928933
16
 energy: 13.615570377644 xtb: 6.7.1 (edcfbbe)
C           -0.90896406147463        0.60750776348678        0.00123709303009
C            0.00253475405841        0.37517009003051       -0.93965176072992
C            1.44475952212119        0.29173395726789       -0.76161014812535
C            2.31035111274215        0.81412949203577        0.10571277697260
C            1.41001192675513        1.52315968950200        2.68733312447877
C            0.13089906764523        1.23243081368280        2.78644145586500
H           -0.67805450397485        0.91492523237153        0.99764833932713
H           -1.95711878164946        0.44416206046984       -0.18237624823722
H           -0.33957746571420       -0.00333822469310       -1.89838653940352
H            1.85463155778659       -0.45464494506174       -1.44291872530059
H            3.26214571502655        0.31407075401910        0.21697565297875
H            2.18641732738451        1.70355867000862        0.67730444942282
H            2.14373125695330        0.74236623969591        2.62964933801192
H            1.77894523489163        2.53442105956177        2.65005781943036
H           -0.65380945433105        1.94851123676553        2.88688441888387
H           -0.22690429927767        0.22631342485584        2.78569772873807
16
 energy: 13.243648041677 xtb: 6.7.1 (edcfbbe)
C           -0.91036962164302        0.57983762676863        0.00590508961518
C            0.00585660883821        0.37724250455412       -0.93298306066350
C            1.44474581320808        0.24630797903054       -0.76183335795324
C            2.31000293452270        0.78476863381189        0.09088590727208
C            1.40809332091476        1.52979581515378        2.69314075494195
C            0.12913081274841        1.23126153398276        2.79632386332386
H           -0.65963596677327        0.71570670260813        1.08031001000848
H           -1.97139331181304        0.55459518261800       -0.21816479897367
H           -0.35116390916395        0.13720890927377       -1.95478387764371
H            1.86315028437936       -0.45764901012297       -1.46771241482488
H            3.30525573861990        0.34832148715613        0.19336415477398
H            2.15236203002764        1.68390593658168        0.66944703277139
H            2.15659716042398        0.74949211271439        2.68152511137263
H            1.75562964332866        2.55178109192051        2.62845799211613
H           -0.65892328989678        1.94989475139514        2.87815116165873
H           -0.21933933877879        0.23200605655251        2.81796520754743
16
 energy: 12.082346280165 xtb: 6.7.1 (edcfbbe)
C           -0.90455377314986        0.54553415210637        0.01751618054748
C            0.00868660594435        0.38970328488718       -0.93309723549769
C            1.44583815521643        0.22941172087438       -0.76886988893639
C            2.31134052122567        0.77501432319628        0.07741435509462
C            1.40706162815034        1.53170610614371        2.70089507141087
C            0.12874297675980        1.22919913700709        2.80461403897183
H           -0.66124197120741        0.64315832082012        1.08656897744397
H           -1.96664582638472        0.60741400617929       -0.22214873646252
H           -0.34924698065641        0.20723862272750       -1.96695256408216
H            1.86387704350171       -0.46256249822647       -1.48404103354623
H            3.31673500523225        0.36497455151730        0.18025052173419
H            2.13190462976727        1.66485189652483        0.66835119388306
H            2.16054198936147        0.75531071509627        2.70697801062009
H            1.74389618355867        2.55614108619908        2.61071817605558
H           -0.66210108048995        1.94763352452138        2.86009844741715
H           -0.21483619788677        0.22974836442472        2.86170326068903
16
 energy: 9.785884061562 xtb: 6.7.1 (edcfbbe)
C           -0.89362669964090        0.51883578977685        0.02351098849596
C            0.01544868605394        0.44455496692855       -0.94462475148271
C            1.44872552014464        0.20996000336056       -0.78817196129605
C            2.31551813767676        0.76516029433327        0.04865667328812
C            1.40370169009607        1.53362672661825        2.70733502258221
C            0.12797219850517        1.22662869371523        2.81436788107252
H           -0.66880761008799        0.49725495658877        1.07687360062483
H           -1.93046823196128        0.66831840844379       -0.19760688512579
H           -0.33615670288776        0.33716537963882       -1.96382516203789
H            1.85341820280509       -0.48413566047244       -1.50711095196177
H            3.31731944113910        0.38797948433532        0.16196301088454
H            2.09556393598122        1.62007432561222        0.66821410481946
H            2.16223551829950        0.76862638189801        2.75127306372180
H            1.72600929597705        2.55505163123126        2.57523471383066
H           -0.66700302136737        1.94105682314551        2.81127998740194
H           -0.20985145179030        0.22431910884509        2.96262944052513
16
 energy: 9.322721246183 xtb: 6.7.1 (edcfbbe)
C           -0.88178928532745        0.48371312372167        0.03754273939708
C            0.02441422852047        0.46436494576088       -0.93485163414833
C            1.45206863970729        0.18789543785780       -0.79538178035770
C            2.31348109506461        0.75089479576105        0.03853717375514
C            1.39930215564764        1.53514147066388        2.70752872776677
C            0.12631404301470        1.22531294473448        2.82676637125171
H           -0.65945770773795        0.29929883499315        1.09652030843305
H           -1.91032731612477        0.76183535638485       -0.18280259168340
H           -0.33188620740498        0.50997433901849       -1.98426527231320
H            1.84586597626907       -0.50067583890663       -1.52885578587803
H            3.32812340551842        0.41470864120784        0.14086629768481
H            2.06355846370816        1.58698903950778        0.66365966504271
H            2.16324467325337        0.78061282597516        2.79569005308121
H            1.71148802673201        2.55217008019758        2.52669943180931
H           -0.67428499541954        1.93278406067601        2.75596358101725
H           -0.21011628647807        0.22945725644509        3.03638149048465
16
 energy: 9.244842003123 xtb: 6.7.1 (edcfbbe)
C           -0.87013334536998        0.47028112386404        0.05259121519826
C            0.03089482290523        0.46876354559859       -0.91578238819939
C            1.45437150118385        0.19224033109984       -0.79770665128473
C            2.31005733778315        0.74957845551987        0.04425282329276
C            1.39406738231578        1.52970109872532        2.69869786740419
C            0.12177870680508        1.22435734757529        2.82255512592964
H           -0.65689521204167        0.22887054341530        1.06810769358646
H           -1.88560871451927        0.78989187614610       -0.13875663031654
H           -0.32328356303835        0.59210051618337       -1.95822581197092
H            1.83309469096993       -0.51015415454004       -1.53275091343782
H            3.32656663052894        0.42091787641294        0.12930146762711
H            2.05725913531955        1.57685796873691        0.65838032675260
H            2.15755020103905        0.78259816679118        2.81927175822928
H            1.71180897374786        2.53623432923755        2.48838714977423
H           -0.68020261181552        1.91952584391105        2.71056284113588
H           -0.22132702687061        0.24271244532180        3.05111290162201
16
 energy: 10.814468088260 xtb: 6.7.1 (edcfbbe)
C           -0.86134745910973        0.48052253058108        0.06370301620274
C            0.03677126797040        0.51357529745267       -0.90372237405271
C            1.45610459558678        0.20124063559239       -0.80059358733104
C            2.31239390369599        0.74789205080017        0.04732526862710
C            1.38694347694071        1.52098692251636        2.68253300655952
C            0.11293438172131        1.22441782277165        2.79774755479807
H           -0.65222199187901        0.07078994447861        1.06328307034700
H           -1.85695657127252        0.83617597015784       -0.08302266979399
H           -0.30618065974492        0.68363707825740       -1.89909876451034
H            1.81264290033498       -0.51539149662618       -1.53560431500462
H            3.32659495763011        0.41646344652098        0.12212320438675
H            2.05643975323038        1.57263906717148        0.65138380135416
H            2.15058942916351        0.78114965814459        2.85504998827940
H            1.71334550865093        2.51476193207076        2.43274389842714
H           -0.68873454032475        1.90207983378688        2.64052659181568
H           -0.23932004365109        0.26353662032251        3.06562108523821
16
 energy: 11.287059108602 xtb: 6.7.1 (edcfbbe)
C           -0.85763388070692        0.45297181146986        0.09684048228480
C            0.03874428104656        0.52507247046605       -0.88073089689212
C            1.45931133322723        0.19987399530651       -0.79315088286471
C            2.32419443078822        0.74562908280596        0.04798768867487
C            1.38229158455648        1.51323021580851        2.66458652647072
C            0.10501578213489        1.22558414210626        2.76165753709049
H           -0.65982566092930        0.00084727139920        1.06315470902438
H           -1.84739344046841        0.85762301688885       -0.03635974916949
H           -0.30483555402640        0.77312134015141       -1.87909162422020
H            1.80984842226612       -0.50399997819094       -1.54153647256071
H            3.33206772287935        0.40175904248466        0.12840020764638
H            2.06826007806060        1.57886908382610        0.64961767951155
H            2.14304763170668        0.77434487531453        2.87038229510401
H            1.71716883966979        2.49956313571468        2.39877542053451
H           -0.69555699391772        1.89571051932904        2.57911488869364
H           -0.25470566734408        0.27427728911857        3.07035096601495
16
 energy: 15.020705116629 xtb: 6.7.1 (edcfbbe)
C           -0.86028584865781        0.43604437610269        0.14854887547809
C            0.03534810479107        0.53224326814638       -0.83101333829198
C            1.46043158938940        0.21082042800214       -0.76475298817386
C            2.35099283852958        0.75262991246943        0.05672008457644
C            1.37674355317256        1.49488506513117        2.63641991799669
C            0.09176668355060        1.22625637824346        2.69292743409881
H           -0.68299754995400       -0.03592046296846        1.05610593969316
H           -1.84322162166177        0.84793383786114        0.04256232647858
H           -0.30816660711134        0.83573305433261       -1.80966624599028
H            1.80794115713796       -0.47052893329254       -1.52773995123560
H            3.34235417886235        0.35740323639693        0.15441418331842
H            2.12802578962621        1.62216960973980        0.64041417195727
H            2.11980731858145        0.75328494782430        2.85329172837930
H            1.73602041085674        2.46916270012633        2.36168473576000
H           -0.70619458568419        1.88669722893541        2.47386769659929
H           -0.28856650248562        0.29566266694856        3.01621420469873
16
 energy: 17.673699087887 xtb: 6.7.1 (edcfbbe)
C           -0.85881303501746        0.41878590943335        0.18973316479021
C            0.03731177563242        0.55572921292372       -0.78224611942059
C            1.46017445828252        0.21372355677755       -0.73931346663323
C            2.36943155427735        0.75304474220927        0.06449362796717
C            1.36876582258576        1.47939345840216        2.59853638502638
C            0.08037374151492        1.22673384279835        2.63752648916520
H           -0.70342531830842       -0.19961354281007        1.06029177075063
H           -1.82695518492525        0.89377982630328        0.11446179831529
H           -0.30449599223470        0.97029705175285       -1.74627983594639
H            1.79777725003855       -0.45458179024527       -1.51449602184091
H            3.35476350166671        0.33656635820377        0.16457968793634
H            2.17597387687557        1.64836607620918        0.62262112461428
H            2.09883290951266        0.73727117959106        2.86472262868667
H            1.74556647051390        2.44011637257428        2.30445735967216
H           -0.71398588782112        1.87343968602666        2.36016555210759
H           -0.32129703365021        0.32142537384934        3.00074463015228
16
 energy: 20.645718304253 xtb: 6.7.1 (edcfbbe)
C           -0.86531837664186        0.41422422892122        0.20051324936082
C            0.03564883038126        0.56962846341838       -0.76625907574328
C            1.45677739444532        0.23210576812987       -0.71940681153631
C            2.37647078972901        0.76143253087863        0.07748386162751
C            1.36616643683612        1.47188443323200        2.56129762074411
C            0.07835816809999        1.22853110007836        2.60235615788797
H           -0.72811603876380       -0.21725468201691        1.06420198674070
H           -1.83654904216746        0.89808322073394        0.11409343356120
H           -0.30028540322238        0.94451425811740       -1.70569711977846
H            1.79230960915131       -0.44353226022071       -1.48656852173679
H            3.35560986423802        0.32359690246019        0.17264142040675
H            2.22958400773741        1.67770737072455        0.61246532485856
H            2.08708957824640        0.71825264474545        2.85716140080864
H            1.75420209064665        2.43059343498917        2.29622139121999
H           -0.70259362394025        1.87279733442544        2.34795229069468
H           -0.33935537583251        0.33191256538253        2.97154216622696
16
 energy: 22.822553534365 xtb: 6.7.1 (edcfbbe)
C           -0.87921087509637        0.41855156586050        0.21009763568987
C            0.03374441188802        0.57529341857892       -0.73916218554264
C            1.45468590283381        0.24883998625778       -0.69150728855792
C            2.39161593983022        0.77536992838426        0.08722929049386
C            1.36972381960355        1.45979212971205        2.55384040397369
C            0.08112952804741        1.22857469485615        2.58535195509977
H           -0.77049509033936       -0.21475966086672        1.06917817101583
H           -1.84267933826917        0.86523221714617        0.11471566899614
H           -0.30491276249722        0.94160179772196       -1.67852658649502
H            1.78744003480920       -0.43947808593981       -1.44700018895024
H            3.35511977698594        0.30633369353108        0.18717749994621
H            2.29839027630329        1.70994482182052        0.60149693188591
H            2.07136117093339        0.69577441225684        2.82383663444508
H            1.76654595932051        2.42191978038828        2.28168840288585
H           -0.69455952362008        1.87792610665358        2.31216288968909
H           -0.35790032178993        0.34356050763801        2.92941954076754
16
 energy: 25.062355917238 xtb: 6.7.1 (edcfbbe)
C           -0.88967659813899        0.39862927498776        0.22881263437138
C            0.03358136810848        0.57813134283014       -0.70542114399139
C            1.45470658938234        0.25783403136215       -0.66210620963480
C            2.40712181684656        0.79123017074775        0.09485374111872
C            1.37258081324531        1.44485908115310        2.53151579962589
C            0.08126912059680        1.22968414802517        2.55429861832527
H           -0.81022056581679       -0.25771225992171        1.06802115736938
H           -1.84960659644244        0.88043570128575        0.12151680747063
H           -0.30754405925321        0.97023480759610       -1.64327507570705
H            1.78405923639935       -0.43984846481640       -1.41207864144557
H            3.36093614296013        0.30227511474769        0.19534164343570
H            2.35435879378994        1.74078145345798        0.58744774411849
H            2.06013514795230        0.67223415829338        2.81176270753222
H            1.77760541029588        2.40410823632615        2.26178369023576
H           -0.68781239148133        1.88130945672318        2.25869130870544
H           -0.38149531950109        0.36029106120143        2.90883399381294
16
 energy: 25.886302914249 xtb: 6.7.1 (edcfbbe)
C           -0.90550361838707        0.39462128177802        0.21912857844509
C            0.03428860367147        0.57499551695949       -0.69467774105640
C            1.45602613009102        0.26059619310003       -0.64106113929770
C            2.41380445429038        0.80740502234374        0.09811626733282
C            1.38052502790498        1.43676345131232        2.51731614233867
C            0.08738787770597        1.23343996435870        2.54093518606581
H           -0.85078223844697       -0.25556291521158        1.06375893609598
H           -1.86022665690893        0.87325274392967        0.09127282059823
H           -0.31089317970836        0.96018652378646       -1.64658427180897
H            1.78506050532326       -0.45789038188197       -1.37594633810046
H            3.36194207714429        0.31259072027614        0.19850474839018
H            2.38282008564918        1.75719732510639        0.57766961825492
H            2.06300324203589        0.65571458252350        2.80456859750733
H            1.78433643022906        2.39719220006510        2.27044272194207
H           -0.67029828135038        1.89190642480647        2.27131981167922
H           -0.39149155030053        0.37206866074712        2.90523483695617
16
 energy: 25.745262656733 xtb: 6.7.1 (edcfbbe)
C           -0.91437379355427        0.38920391972064        0.21245839648098
C            0.03529199770018        0.58125298245417       -0.69605345592195
C            1.45748359298519        0.26472420652156       -0.63193892277047
C            2.41460234785872        0.81885172117114        0.09973085955800
C            1.38793567649771        1.42972664037394        2.52438360436982
C            0.09365740025682        1.23304865970777        2.55024425867008
H           -0.87244175761071       -0.25647118318522        1.06277597433880
H           -1.86828512372528        0.87989789855768        0.06832148412126
H           -0.30781973492810        0.93873588837873       -1.65048950682330
H            1.78449808681143       -0.47194510534302       -1.35253002737534
H            3.35868266377703        0.31989210784297        0.20181531300020
H            2.38984647428961        1.76944810928002        0.56956351223494
H            2.06861967270478        0.64698427576891        2.80070969931396
H            1.78868180960161        2.39246175992499        2.26882572341446
H           -0.66352165978555        1.90138099133878        2.26935661349668
H           -0.39285874393593        0.37728444148656        2.90282524923487
16
 energy: 26.498244462071 xtb: 6.7.1 (edcfbbe)
C           -0.91517687938237        0.39402396490610        0.21702521683916
C            0.03499512747015        0.58257226564111       -0.69044059873645
C            1.45744568836747        0.26422234066642       -0.62523981237886
C            2.41584490085629        0.82108094653411        0.10362298593612
C            1.38692181873670        1.42482116464039        2.51699573700405
C            0.09117903073508        1.23204310724520        2.53675823999908
H           -0.87294227689711       -0.26220579967759        1.06288975871651
H           -1.86678083396220        0.88104093765677        0.08088810397320
H           -0.30533824501969        0.93880127871816       -1.64415883900364
H            1.78416614136481       -0.47148579828814       -1.34375847075816
H            3.35878606936772        0.31398886067225        0.21066242411208
H            2.39260331651721        1.78628015602255        0.56057554965777
H            2.06801388855473        0.64311244398936        2.80047420071214
H            1.79210775421803        2.38519581073855        2.25956288856227
H           -0.66388125071488        1.90154351188660        2.25721449407958
H           -0.39794534126868        0.37944212264781        2.89692689662812
16
 energy: 26.390376403922 xtb: 6.7.1 (edcfbbe)
C           -0.91336054184594        0.40023658381781        0.21276959686879
C            0.03491629716423        0.57407448292695       -0.69551032180363
C            1.45773129345670        0.25848964776670       -0.62609015796779
C            2.41228444754718        0.82365125307255        0.10201287921355
C            1.38618974191552        1.42485290343765        2.51838148192821
C            0.09121567817143        1.23051773560604        2.54137285394125
H           -0.86164649758593       -0.24377855098508        1.06317448080589
H           -1.86603053113950        0.88514333060929        0.07919849645513
H           -0.30388026231948        0.91806385563741       -1.65750769649560
H            1.78738329921929       -0.47819551363871       -1.34011348485325
H            3.35608876111607        0.31858681052821        0.21744675938015
H            2.37460804984677        1.79106854791740        0.55388888910721
H            2.07158228957493        0.64713840211006        2.79574545217636
H            1.79080059571215        2.38479290590465        2.26390326060476
H           -0.66291752977146        1.90314358532264        2.27490438738619
H           -0.39496618211871        0.37669133396609        2.89642189859575
16
 energy: 26.693393377044 xtb: 6.7.1 (edcfbbe)
C           -0.91508281367407        0.40035018255113        0.21395656191292
C            0.03557063821234        0.57667855045781       -0.69505320746358
C            1.45799795548365        0.25810266900886       -0.62032909926901
C            2.41205697159507        0.82846932574118        0.10431242668237
C            1.38724545176183        1.42025804022551        2.51257874413561
C            0.09221785114847        1.22987994926071        2.53836590051821
H           -0.86627377651627       -0.24487649523960        1.06464840373404
H           -1.86402484858672        0.88872308529551        0.07975868594910
H           -0.30050390492713        0.91241170633937       -1.66363710562503
H            1.78741294970703       -0.48513677735513       -1.32825741566439
H            3.35368771303010        0.32154876556029        0.22636036204432
H            2.37186868449672        1.79939356564000        0.54525606708362
H            2.07282783831984        0.64279559765942        2.79258466091507
H            1.79359044519220        2.37912524990155        2.25712778254899
H           -0.65908648575908        1.90700355436356        2.27518986366906
H           -0.39950576054072        0.37975034458949        2.89713614417165
16
 energy: 27.372891405296 xtb: 6.7.1 (edcfbbe)
C           -0.91661061636705        0.40158377676868        0.21555692157982
C            0.03559702780298        0.57539850893157       -0.69215179111323
C            1.45750584644692        0.25821475902824       -0.61331676747569
C            2.41269240530398        0.83411333815799        0.10632437324777
C            1.38842187275540        1.41564258678484        2.50823939783344
C            0.09308153574014        1.22913185504723        2.53498217430429
H           -0.87156378466014       -0.24460501559539        1.06671053744202
H           -1.86360161903951        0.89617734514763        0.07874374104031
H           -0.30001117873876        0.89895669074972       -1.66463593810375
H            1.78832207082774       -0.49017790594628       -1.31616681289693
H            3.35227961364625        0.32605107197668        0.23426857690806
H            2.37705775612817        1.81034583099577        0.53446955468449
H            2.07192375341934        0.63659433591270        2.78677429057760
H            1.79626741290822        2.37429923851290        2.25287736477562
H           -0.65609298509361        1.90974213930814        2.27281450908581
H           -0.40527020213683        0.38300875821923        2.89450864345329
16
 energy: 27.823398568503 xtb: 6.7.1 (edcfbbe)
C           -0.91518126897793        0.40301141314769        0.21819131917000
C            0.03543401263792        0.57452184380708       -0.69260538647132
C            1.45702155229587        0.25875439267745       -0.61321840592146
C            2.41171511467535        0.83406985158691        0.10734853884336
C            1.38814334819390        1.41507693400481        2.50630290056397
C            0.09283716581696        1.22881288119019        2.53433760374418
H           -0.86982743333630       -0.24231251426917        1.06948648460000
H           -1.86123488220791        0.89912702455914        0.08236438856972
H           -0.30109910535650        0.89182660738237       -1.66651965502894
H            1.78960568515265       -0.48892888880421       -1.31574772692249
H            3.35116740455456        0.32715133021554        0.23798300823112
H            2.37791535166950        1.81176051356440        0.53078172342536
H            2.07089825346482        0.63481576503093        2.78559532258917
H            1.79644381319958        2.37356838434340        2.25162408400687
H           -0.65682169151819        1.90897637043406        2.27222552101069
H           -0.40701841132105        0.38424540512908        2.89184905493273
16
 energy: 28.670252039483 xtb: 6.7.1 (edcfbbe)
C           -0.91175518149959        0.40680095604786        0.22252084771772
C            0.03514262607192        0.57087620714911       -0.69425477684334
C            1.45662025923180        0.26009558973994       -0.61572547087171
C            2.40973135857816        0.83294437846311        0.10924389501421
C            1.38784327329709        1.41502311750839        2.50537446581144
C            0.09229503034815        1.22881308448058        2.53220140300315
H           -0.86572440341468       -0.23781900990772        1.07402718968411
H           -1.85656278380106        0.90493102100126        0.08929425047518
H           -0.30535008215407        0.87853851421780       -1.66920599037886
H            1.79370461135606       -0.48214822856650       -1.32155775967472
H            3.34916929694789        0.32761582893149        0.24358732724280
H            2.37886795265190        1.81082186513793        0.52921290046154
H            2.06812739021924        0.63287363128993        2.78177487829912
H            1.79622838925115        2.37341848221502        2.24930995815388
H           -0.65909064459430        1.90575721446585        2.27070331586460
H           -0.40924818354642        0.38593466182563        2.89349234138383
16
 energy: 29.004063714319 xtb: 6.7.1 (edcfbbe)
C           -0.91184455881836        0.40761856177467        0.22336019137266
C            0.03498417276389        0.56932300643977       -0.69389880247611
C            1.45695753427213        0.26069212138989       -0.61607457683692
C            2.40991500617723        0.83314677197675        0.11019077021192
C            1.38800939945927        1.41523226984688        2.50375272183117
C            0.09271208424353        1.22885528076870        2.53188890639139
H           -0.86754166925725       -0.23731986587740        1.07471404855003
H           -1.85630260528506        0.90601276878822        0.08963111131938
H           -0.30763047560672        0.87553060196347       -1.66896587609611
H            1.79543040608216       -0.47902134367431       -1.32406456631680
H            3.34882974126581        0.32619747268487        0.24454140280798
H            2.38077166836162        1.81118851007581        0.53123750376763
H            2.06805857303112        0.63240084351120        2.78287001425579
H            1.79599151242526        2.37345244730832        2.24894101943473
H           -0.65978608156261        1.90402390760000        2.26910962429369
H           -0.40855579860878        0.38714395942283        2.89276528283250
16
 energy: 29.097568244252 xtb: 6.7.1 (edcfbbe)
C           -0.91207597744924        0.40864413283011        0.22367114342479
C            0.03521814103741        0.56991416081049       -0.69350312909815
C            1.45764183656235        0.26116656484798       -0.61618959165649
C            2.41016879176682        0.83363829758059        0.11091709792385
C            1.38880299390201        1.41496689701572        2.50286283065233
C            0.09351893609589        1.22913720738617        2.53217820548591
H           -0.87092372564107       -0.23971420968550        1.07240969114329
H           -1.85710214570542        0.90582640406017        0.08768027866005
H           -0.30855142187339        0.87309527569732       -1.66992620268530
H            1.79600816456026       -0.47730239784511       -1.32552625749461
H            3.34913694668248        0.32554594504688        0.24309272291712
H            2.37904099899247        1.81061664605968        0.53706478190718
H            2.06909223520669        0.63409454897063        2.78460948922516
H            1.79661679888210        2.37252615023856        2.24565430226167
H           -0.65900981194654        1.90325357666578        2.26798474046905
H           -0.40758385212958        0.38906811432019        2.89701867220712
16
 energy: 29.172293175213 xtb: 6.7.1 (edcfbbe)
C           -0.91249862835797        0.40836458340522        0.22384626292667
C            0.03524249691978        0.56894737359205       -0.69324432778153
C            1.45797299182853        0.26103469916119       -0.61645834862332
C            2.41041806622605        0.83329034310679        0.11081017971297
C            1.38869970363404        1.41525818460678        2.50465355994808
C            0.09351150472763        1.22873703571479        2.53202389815485
H           -0.87228210979316       -0.23851652390683        1.07390299559728
H           -1.85695654065963        0.90662560049315        0.08692524900272
H           -0.30894737868035        0.87153853141747       -1.66998368284695
H            1.79654318283550       -0.47510446177522       -1.32795921856843
H            3.34929094815327        0.32478517421242        0.24173855463824
H            2.38003777122059        1.81029365453020        0.53635465066301
H            2.06963964101961        0.63514463830508        2.78643711106343
H            1.79595844918507        2.37290147551930        2.24682192362585
H           -0.65904087403695        1.90176944308008        2.26568212856427
H           -0.40759031527877        0.38940756253721        2.89844783926582
