16
 energy: 0.000000000000 xtb: 6.7.1 (edcfbbe)
C           -0.77705358962067        1.00256531388960       -0.37427006004611
C            0.00803256125606       -0.06812763652329       -0.41521319054704
C            1.46197102642616       -0.06812564178421       -0.41521217663121
C            2.24705442695429        1.00256929403646       -0.37426771729741
C            1.39307066534339        1.26847997603248        2.85079349949180
C            0.07692556821269        1.26848872121441        2.85080241843411
H           -0.38376941678460        2.00369806429917       -0.34107369651756
H           -1.85021732606258        0.91469753527342       -0.37351699803135
H           -0.44762220569676       -1.05037115376285       -0.44792896061413
H            1.91762851892125       -1.05036787095517       -0.44792786529427
H            3.32021831764553        0.91470438222659       -0.37351370286549
H            1.85376766457729        2.00370085525613       -0.34107228876692
H            1.96396422140850        0.35981624292725        2.94334122046779
H            1.96586732819686        2.17645147372874        2.75784402536034
H           -0.49586098536360        2.17646660814987        2.75785888081288
H           -0.49397786647237        0.35983114999089        2.94335538738743
16
 energy: -0.000540340877 xtb: 6.7.1 (edcfbbe)
C           -0.77756291084857        1.00215448484231       -0.37058040351782
C            0.00813249568161       -0.06796324798938       -0.41505599240868
C            1.46165358990370       -0.06751878406527       -0.41502708215266
C            2.24741655959681        1.00267715333842       -0.37098820509805
C            1.39319613641023        1.26863071194852        2.84804920456153
C            0.07702364374797        1.26838441607749        2.84824457775348
H           -0.38462935300404        2.00260267738657       -0.33433496215973
H           -1.85032415118703        0.91427374624627       -0.37139687989497
H           -0.44739014212152       -1.04968333486432       -0.45218405044424
H            1.91745154614541       -1.04910906626261       -0.45194444873110
H            3.32010160761039        0.91330351492700       -0.36976443244571
H            1.85523090439350        2.00393526154979       -0.33732242762604
H            1.96412431231052        0.35970203452619        2.94006730863717
H            1.96520845801830        2.17713473271482        2.75575107259136
H           -0.49565178284082        2.17619242969212        2.75749781351306
H           -0.49398200487502        0.35976058393158        2.93898768276526
16
 energy: -0.001522002748 xtb: 6.7.1 (edcfbbe)
C           -0.77837868976863        1.00177325937887       -0.36423741799414
C            0.00804517242699       -0.06754956459080       -0.41629896452457
C            1.46145228651402       -0.06664662732682       -0.41575288181363
C            2.24802295285447        1.00276149757625       -0.36533489017214
C            1.39326502608992        1.26882640195846        2.84234748905151
C            0.07708118423532        1.26811531340743        2.84291106849510
H           -0.38580160531009        2.00209018948899       -0.31951544910491
H           -1.85112167949252        0.91326245338075       -0.36582994545384
H           -0.44713952199664       -1.04919447745384       -0.46023594885691
H            1.91733681387161       -1.04799141000573       -0.45794265544647
H            3.32057534408675        0.91151941497540       -0.36244329906848
H            1.85722959176313        2.00443118008506       -0.32725008380133
H            1.96449182565046        0.35988187679261        2.93197711237627
H            1.96454427580703        2.17794648126575        2.75177843005483
H           -0.49578360100951        2.17611085756367        2.75500725046210
H           -0.49382046678085        0.35914046750346        2.93081896113945
16
 energy: -0.001822934237 xtb: 6.7.1 (edcfbbe)
C           -0.77917862003813        1.00144179688163       -0.35497039590166
C            0.00795641367534       -0.06691556111583       -0.41777548615975
C            1.46133661687116       -0.06573885032895       -0.41638434160356
C            2.24870122014932        1.00274591999256       -0.35694457618802
C            1.39326878392560        1.26903677974576        2.83393812803843
C            0.07707234087087        1.26774281124101        2.83504982328891
H           -0.38724046378375        2.00156588890809       -0.29940116753940
H           -1.85187279515535        0.91217341372288       -0.35774633163411
H           -0.44678884393232       -1.04840204255779       -0.47154225671592
H            1.91709632808006       -1.04686788554815       -0.46565622199446
H            3.32113553292822        0.90991923626643       -0.35277425880216
H            1.85926660560836        2.00472595230595       -0.31279302200477
H            1.96496728140916        0.36008614307265        2.92044183969080
H            1.96393139062837        2.17880980252824        2.74600482328408
H           -0.49613151291777        2.17585580126168        2.75059584986037
H           -0.49352136937762        0.35829810762334        2.91995636972408
16
 energy: 0.001143221590 xtb: 6.7.1 (edcfbbe)
C           -0.78023063066940        1.00102232496118       -0.33907560543214
C            0.00787734435731       -0.06579615374106       -0.41993351161493
C            1.46122734289922       -0.06437395297107       -0.41707087387489
C            2.24965810745360        1.00268482400158       -0.34246703580812
C            1.39324922619469        1.26929291627758        2.81920107242447
C            0.07703199868852        1.26706928858000        2.82127281838560
H           -0.38931616553958        2.00073275404389       -0.26523655964823
H           -1.85285598893959        0.91063791370886       -0.34355882470833
H           -0.44625870243177       -1.04687638615192       -0.49045534343321
H            1.91670066979322       -1.04514931871524       -0.47821568761444
H            3.32194602837889        0.90782797426422       -0.33634906747526
H            1.86199735239652        2.00494570597071       -0.28763048570749
H            1.96569564710067        0.36032576288978        2.90062414270787
H            1.96305760328627        2.18000596269403        2.73528393764315
H           -0.49679487624886        2.17527731456429        2.74200502299294
H           -0.49298604777812        0.35685038362264        2.90160477650585
16
 energy: 0.020208103753 xtb: 6.7.1 (edcfbbe)
C           -0.78157847478954        1.00045793853723       -0.31240436605599
C            0.00782689913940       -0.06382200124971       -0.42289250111738
C            1.46111885975452       -0.06221647938030       -0.41759614460039
C            2.25095897955053        1.00257787734240       -0.31806204465761
C            1.39320324390257        1.26950550685975        2.79396588799219
C            0.07694839560642        1.26583484348875        2.79768557810421
H           -0.39220596490205        1.99921320582165       -0.20885528682398
H           -1.85410452243966        0.90851920611973       -0.31952629431580
H           -0.44550063404055       -1.04394271339343       -0.52099724514880
H            1.91611550292430       -1.04232364316020       -0.49821884321047
H            3.32305230706648        0.90504817751652       -0.30901660137128
H            1.86562445692474        2.00497393074092       -0.24538555983617
H            1.96679275775797        0.36054599025747        2.86771967951255
H            1.96177812686363        2.18157962311895        2.71599321463875
H           -0.49792830795735        2.17408478882925        2.72619710771530
H           -0.49210271641974        0.35444106255046        2.87139219451766
16
 energy: 0.107521086624 xtb: 6.7.1 (edcfbbe)
C           -0.78317199944662        0.99962871303776       -0.27052156553357
C            0.00783715040807       -0.06038844725741       -0.42642888388393
C            1.46098819834669       -0.05874288408451       -0.41741654610525
C            2.25258116054746        1.00241533946386       -0.27961994038944
C            1.39313684660359        1.26946435111039        2.75351606595640
C            0.07680861138256        1.26367248193291        2.75989844133338
H           -0.39599616748915        1.99621334351275       -0.12213764887762
H           -1.85555945582503        0.90570015375913       -0.28142875126508
H           -0.44447676011604       -1.03837684570198       -0.56670430747175
H            1.91532183966247       -1.03752230071007       -0.52789877814089
H            3.32440729432396        0.90136312217927       -0.26616107942902
H            1.87024669890375        2.00453865336856       -0.17942094954662
H            1.96836796782566        0.36061438317850        2.81661861700553
H            1.95996743935311        2.18339928282656        2.68362594267357
H           -0.49968104411946        2.17182586911464        2.69937365443803
H           -0.49077887141917        0.35067209826903        2.82470450457902
16
 energy: 0.427624521692 xtb: 6.7.1 (edcfbbe)
C           -0.78474363156201        0.99827253472817       -0.21200499341721
C            0.00795486936981       -0.05466249340585       -0.42948557086820
C            1.46077175601329       -0.05327305756744       -0.41553087784511
C            2.25427657418320        1.00213526849102       -0.22578501110011
C            1.39309009786668        1.26880047881473        2.69553548058666
C            0.07661151611016        1.26019549339858        2.70580996534805
H           -0.40049712147604        1.99028467507142       -0.00461711671132
H           -1.85695546886512        0.90213582426513       -0.22728720114333
H           -0.44319815852933       -1.02826125908557       -0.62645780386393
H            1.91434929723347       -1.02947299688562       -0.56655227771745
H            3.32573657682300        0.89658481001811       -0.20578857006137
H            1.87563878431109        2.00308839266942       -0.08830024699253
H            1.97044278647759        0.36031020137585        2.74563698519507
H            1.95763648536337        2.18502685239889        2.63544117074008
H           -0.50207761890030        2.16797946940495        2.65931845174777
H           -0.48903783547674        0.34533312030757        2.76006639144561
16
 energy: 1.316785293267 xtb: 6.7.1 (edcfbbe)
C           -0.78585685137654        0.99599427911985       -0.14101406337419
C            0.00823334599306       -0.04578804612065       -0.43009450059089
C            1.46036010205379       -0.04511894976271       -0.41071352332735
C            2.25557578236918        1.00161580221922       -0.16001473527929
C            1.39317013931178        1.26709250895391        2.62242664969287
C            0.07638177871282        1.25511997039070        2.63785341554501
H           -0.40525595889916        1.97963473214599        0.13152778142344
H           -1.85787709436100        0.89778407961226       -0.15901361200756
H           -0.44172546034298       -1.01138905399005       -0.69199720603365
H            1.91328536859602       -1.01670360310534       -0.60938677493172
H            3.32653919130993        0.89054219769603       -0.13037109774621
H            1.88125278897869        1.99985404051355        0.02073475856487
H            1.97296997584452        0.35937364743895        2.65850653830129
H            1.95495527836819        2.18585983055458        2.57292120012910
H           -0.50496850783755        2.16212279269831        2.60771800455742
H           -0.48704096977831        0.33848308563468        2.68091594041947
16
 energy: 3.000534762718 xtb: 6.7.1 (edcfbbe)
C           -0.78623444761758        0.99198280444610       -0.07067219313879
C            0.00873845164194       -0.03402953994476       -0.42925529164783
C            1.45961849965059       -0.03452345266146       -0.40503678035639
C            2.25603744014357        1.00026085548603       -0.09354487256575
C            1.39357723986542        1.26504185657858        2.54681437349290
C            0.07618174862513        1.24926998207560        2.56872758533051
H           -0.40984653763720        1.96298625110778        0.25960529569013
H           -1.85807003442710        0.89184406555875       -0.08585180870565
H           -0.44013006854915       -0.98732145906018       -0.75256919567767
H            1.91225440880087       -0.99887947794054       -0.65085002848206
H            3.32630148674263        0.88247416904388       -0.04976667990718
H            1.88655302923033        1.99388928434058        0.12789842007130
H            1.97601372767588        0.35852624092859        2.56770066840348
H            1.95209471938399        2.18666000441817        2.50937464278630
H           -0.50812251197772        2.15515259899180        2.55819968105455
H           -0.48496824260886        0.33114313063029        2.59922495899465
16
 energy: 6.823738234113 xtb: 6.7.1 (edcfbbe)
C           -0.78446748086202        0.97790504417256        0.01530472281701
C            0.00954946764781       -0.01666255835324       -0.45224180377662
C            1.45810187140857       -0.02041834244943       -0.41754056208041
C            2.25509935151446        0.99135950487811       -0.02010026401913
C            1.39416859149326        1.26943886740570        2.47300594039859
C            0.07557496681051        1.24773680176946        2.50452678424114
H           -0.41712184719837        1.92094208445680        0.43362784451225
H           -1.85641542156300        0.87833732014915       -0.01053842142520
H           -0.43661977404264       -0.94432983952371       -0.87514834700253
H            1.91001137912652       -0.97075571290838       -0.73246352332630
H            3.32460341313633        0.86366436644530        0.03787778935663
H            1.89492962837262        1.97543140542904        0.25609728106306
H            1.98033416559014        0.36487857334318        2.46734256014101
H            1.94769459416274        2.19664843248008        2.46914431560268
H           -0.51344701507249        2.15257360861519        2.53853025250269
H           -0.48199698158138        0.32772775808933        2.51257420633754
16
 energy: 15.086254218071 xtb: 6.7.1 (edcfbbe)
C           -0.78303133946089        0.95599419578994        0.08856829128537
C            0.00937334210061        0.00687098642349       -0.48562717702157
C            1.45613080366878       -0.00310693231761       -0.43585471242532
C            2.25458688903315        0.97830849391490        0.04817672872142
C            1.39520645435238        1.27783750395959        2.41162504169548
C            0.07556674597020        1.24934896864932        2.45512475023644
H           -0.42976496749479        1.85895730690284        0.63822351907148
H           -1.85502179309380        0.85929135027101        0.06456490095143
H           -0.43116496814621       -0.88283849634324       -1.02089797525452
H            1.90638936248121       -0.93486376146664       -0.82662965648934
H            3.32333555797669        0.83789899827631        0.12813317085117
H            1.90758732183781        1.95099984263414        0.39935983015135
H            1.98524178709569        0.37532628978106        2.36203706818354
H            1.94216118949693        2.20840313791580        2.43036490320803
H           -0.51762653720713        2.14904631470204        2.52284998119985
H           -0.47897093966725        0.32700311490610        2.41998011097755
16
 energy: 19.920942369891 xtb: 6.7.1 (edcfbbe)
C           -0.78743622310284        0.93262047038326        0.13238559044329
C            0.00841728421060        0.02433590099166       -0.53583553918447
C            1.45568460724687        0.00809331865247       -0.47839827386978
C            2.25869798354022        0.96242628133673        0.07158680751522
C            1.39680470565780        1.29280197949215        2.42060732423721
C            0.07728439517783        1.25860212984795        2.47390932056526
H           -0.45351348123965        1.79470445239526        0.72522651245343
H           -1.85939041784561        0.83701307726454        0.08240826687553
H           -0.42353063573348       -0.83242914313232       -1.16589391132836
H            1.90233972234359       -0.90902809701600       -0.92900014796813
H            3.32623546092100        0.80864460911351        0.16300624709883
H            1.92706727945423        1.92421673260953        0.47393360382279
H            1.98884497466482        0.39290978764414        2.32928760028291
H            1.93805229344707        2.22780544726566        2.46295736489985
H           -0.52041117695925        2.15619519231924        2.58003078238415
H           -0.47514786283978        0.33556517483125        2.39378722711463
16
 energy: 22.052374112051 xtb: 6.7.1 (edcfbbe)
C           -0.79773862285462        0.90560233137680        0.09350478504040
C            0.00512456018260        0.04397789300489       -0.59580530302856
C            1.45559700727833        0.02128786508289       -0.51602639462211
C            2.26584031481590        0.94606356482505        0.06667160537511
C            1.39920834823731        1.31033044757361        2.45602288413775
C            0.08165001399517        1.26885653787662        2.51848310676073
H           -0.48482199804776        1.72533338960451        0.82646980560819
H           -1.86908326362493        0.80682668173074        0.07050980594701
H           -0.41431576975209       -0.77604708328885       -1.28293677601419
H            1.89764525316201       -0.87952933335817       -1.01929875511137
H            3.33135369037110        0.77490607437885        0.17795591523794
H            1.95157389323171        1.89546272097508        0.53553622526415
H            1.99254168168417        0.41523821966686        2.32034071140978
H            1.93436766849191        2.24801629309562        2.50846193191803
H           -0.52085477384454        2.16050955644575        2.64515613188325
H           -0.46808909438287        0.34764215500878        2.39495309553627
16
 energy: 18.217140434111 xtb: 6.7.1 (edcfbbe)
C           -0.81672926375567        0.87872309529995        0.05912271526053
C           -0.00014414773551        0.06536086635402       -0.65123877846556
C            1.45949770282569        0.03478591801459       -0.56409413699042
C            2.28060007718323        0.92919738704539        0.03598314984909
C            1.39989152786348        1.33061095934709        2.52733285732190
C            0.08746145535005        1.27927015412284        2.59093319373546
H           -0.52456625067050        1.64532409707110        0.84871883270631
H           -1.88797495159730        0.77814621430651        0.01130236123097
H           -0.40198182457334       -0.71452451256461       -1.37437140637685
H            1.89415704372771       -0.84805932377500       -1.09944977030392
H            3.34216934301493        0.73776789647506        0.14763479614885
H            1.98254402574249        1.86067489784770        0.56857221542252
H            1.99226497246919        0.44425571896830        2.35440288825707
H            1.93061608776767        2.26794987688451        2.57580595879360
H           -0.52089364294891        2.16073724347278        2.72430026789358
H           -0.45691324571996        0.36425682512877        2.44504363085932
16
 energy: 10.159905632583 xtb: 6.7.1 (edcfbbe)
C           -0.84735449123268        0.84713020646100        0.01923345776234
C           -0.00652932258049        0.09560693151292       -0.70405793813055
C            1.46839349174407        0.05551029711365       -0.60216283834680
C            2.30376344485393        0.91232281773134        0.02441183803128
C            1.40007766371565        1.35218968863408        2.60327593774850
C            0.09417898365875        1.28490581438654        2.67347256065892
H           -0.56994726802392        1.53042166712513        0.82606658573215
H           -1.91821497217501        0.75115664994987       -0.10222835913440
H           -0.38636366999532       -0.62261004190827       -1.44063533659418
H            1.89301132397071       -0.79679767926310       -1.15682095875754
H            3.35784958144884        0.69550504057876        0.07057695318797
H            2.01572115410785        1.80319162379992        0.53278914475548
H            1.99000077000476        0.48438854790344        2.42595490144448
H            1.92828422158633        2.29106284134909        2.66493904934128
H           -0.52441452311418        2.15182589679568        2.81898677394890
H           -0.43845747902633        0.37866701182900        2.54619700369474
16
 energy: 9.156208170199 xtb: 6.7.1 (edcfbbe)
C           -0.87301906715915        0.79998995194835        0.01324477225552
C           -0.00468164916609        0.13493051222063       -0.76298691371164
C            1.47278778681498        0.08437212026737       -0.66720354445334
C            2.31985872603294        0.88222496891917       -0.03181650490846
C            1.40293241929787        1.38747486244443        2.67351194966955
C            0.09645257491386        1.29805230181511        2.76388086524150
H           -0.61608380728405        1.37970868161196        0.87132382670900
H           -1.94067340546625        0.71100768264232       -0.19482859395824
H           -0.36876416096250       -0.50139484280456       -1.61244046323332
H            1.89055166858286       -0.72426506510851       -1.25641116500998
H            3.36881376649092        0.62706468104789        0.02351084053216
H            2.04896397095616        1.73876229415318        0.59315952103589
H            2.00149953265018        0.53055536545230        2.45767993656926
H            1.92138249201435        2.33211386239380        2.76106377578273
H           -0.53700445836699        2.14980830867892        2.95115114154264
H           -0.42301748040636        0.38407162831669        2.61715933127934
16
 energy: 8.804746864597 xtb: 6.7.1 (edcfbbe)
C           -0.89779942149775        0.75114678980695       -0.03098933330515
C           -0.00087558143309        0.17401085658097       -0.86633049507811
C            1.47155845173357        0.11211565000403       -0.73894584712390
C            2.33443129663636        0.85366802771633       -0.02440323491379
C            1.40617114149727        1.42533964039756        2.74126549135229
C            0.09785749915244        1.31217898980667        2.85277650571391
H           -0.66168824356811        1.22498186156890        0.94153919177027
H           -1.95567971713081        0.67289258439119       -0.26007749261296
H           -0.35090886330131       -0.37513364767901       -1.74267358690563
H            1.88553115419533       -0.65610353625303       -1.37826130884263
H            3.37827627133606        0.56502984277715       -0.00779023169513
H            2.08036022876806        1.67615381616210        0.62855911794525
H            2.01770215662178        0.57558140582564        2.48590982670038
H            1.91268719427268        2.37318472230982        2.83936785069118
H           -0.54976627978568        2.14607411091199        3.07307189939749
H           -0.40785837855427        0.38335619967184        2.68698042224925
16
 energy: 8.363491719450 xtb: 6.7.1 (edcfbbe)
C           -0.90571165626335        0.70846317745774       -0.09037765641276
C            0.01470667189582        0.20684171725966       -0.87415890098713
C            1.46119778064688        0.13412651746379       -0.75096982901299
C            2.33186739383307        0.83204793012261       -0.00102708751902
C            1.40769123981756        1.45740701812370        2.76834523868551
C            0.09472475653635        1.31975674291551        2.90631560814445
H           -0.67783100569266        1.07361268652962        0.90440432111493
H           -1.94183975831805        0.66220050899459       -0.29167146894398
H           -0.34469984961386       -0.24446873330476       -1.79991532957846
H            1.88712656734129       -0.59428293955948       -1.48779901760809
H            3.37161911409539        0.52844266057816       -0.05195805398354
H            2.07752803488743        1.62344568858161        0.65067109718235
H            2.03871796721726        0.61048508613167        2.53684653424776
H            1.90276811204376        2.40470296412469        2.86332774877860
H           -0.56306603209741        2.13220208852222        3.13730493482255
H           -0.39480042738711        0.35949420005776        2.78066063641259
16
 energy: 6.463346146014 xtb: 6.7.1 (edcfbbe)
C           -0.91140907105015        0.66996314920408       -0.07994995838735
C            0.02470684393419        0.23645547510447       -0.95167480772836
C            1.46154563344397        0.14856335997775       -0.81984636017032
C            2.33272446653911        0.80413927056513       -0.04766792430277
C            1.40474204120292        1.47875098093683        2.80286809125047
C            0.09884619651850        1.32513184914050        2.94434881823746
H           -0.69741050006910        0.95603469302821        0.93237216031439
H           -1.94558554526275        0.64605680167377       -0.33408712295158
H           -0.33244518202106       -0.13890656582891       -1.90779360849418
H            1.88645428569539       -0.54465569392144       -1.54090100242433
H            3.36673862239869        0.49601512029679       -0.05986931694475
H            2.08360071822079        1.56964283023260        0.66978398130700
H            2.04138745025693        0.64547113613273        2.60694888002529
H            1.89047637711270        2.43129931352472        2.90980942145647
H           -0.56557961459407        2.12421070401027        3.20166122910536
H           -0.37879381338384        0.36630488992159        2.87399629505003
16
 energy: 7.878395590790 xtb: 6.7.1 (edcfbbe)
C           -0.90652318240902        0.62680482206981       -0.09453952512604
C            0.02469656011810        0.26286005898638       -0.99334322237120
C            1.46203732438931        0.15994344316145       -0.86126740471640
C            2.32442989078581        0.77685447640357       -0.05984835429849
C            1.40284479405005        1.50564118106967        2.87805595262727
C            0.10613368795396        1.33400679572114        3.01731304940126
H           -0.69938772093618        0.81765792897508        0.98644912263074
H           -1.94669409917888        0.63373618053530       -0.42228722100732
H           -0.33127163732862       -0.02751312526162       -2.04945203404693
H            1.89367811568487       -0.49283634668657       -1.61510115825289
H            3.35578277017863        0.47732382907515       -0.07997445254924
H            2.07143803186998        1.50909625371836        0.66103348454866
H            2.05297946652878        0.67604422866212        2.65544851311695
H            1.87322295904781        2.46573437224028        2.95746296449207
H           -0.56643097928152        2.11968365441901        3.27041915892640
H           -0.35693707253102        0.36943956090999        2.94962990196805
16
 energy: 4.682546755730 xtb: 6.7.1 (edcfbbe)
C           -0.89972362071779        0.58907553806721       -0.09305586736130
C            0.01737117569021        0.28342658161217       -1.01057037061926
C            1.45681893698038        0.16006920096193       -0.88260784185143
C            2.30994594363273        0.74685847880138       -0.04683380393244
C            1.40924323631116        1.51150252073704        2.87672416519293
C            0.11405626400732        1.33459092316199        3.03412023450738
H           -0.68375422412564        0.77290794832023        0.95403011983351
H           -1.93911198091971        0.64029348167084       -0.38561647510754
H           -0.33987589362084        0.03185326833914       -2.02867408800688
H            1.88758695773718       -0.49876448892904       -1.63041569114039
H            3.35336892953627        0.47739571750526       -0.08316255935449
H            2.04863280818326        1.50310391087412        0.66346712231315
H            2.06442822875475        0.68121387260972        2.67282252126742
H            1.87280135082492        2.48070522906478        2.94313953989833
H           -0.56606150071435        2.13262750041946        3.25739593029726
H           -0.34572770261788        0.36761763078290        2.95923583940671
16
 energy: 3.908423101187 xtb: 6.7.1 (edcfbbe)
C           -0.88616107112649        0.56746605684503       -0.08635002325235
C            0.00876160656518        0.30798922240477       -1.03340849280386
C            1.45075400876119        0.15805531059853       -0.91025443974194
C            2.29268671639906        0.72719224333779       -0.05267010182914
C            1.41804643072637        1.52251933203865        2.87772886765134
C            0.12322437792553        1.34118757781739        3.03398389000961
H           -0.65248388259378        0.68771724751216        0.94693449217291
H           -1.93292799309698        0.63595454720181       -0.33035952693469
H           -0.35313551248654        0.11896280038419       -2.02833054873398
H            1.87677943608752       -0.50260738340563       -1.65744368492533
H            3.33881292519407        0.46206158995138       -0.06728553089976
H            2.01254496093862        1.47996270853294        0.66377973236302
H            2.08241674445865        0.69192134579034        2.70513505389925
H            1.87053637072451        2.50179138525207        2.92171061220278
H           -0.56225085033483        2.14608137877418        3.23481704219845
H           -0.32760535920026        0.36822195096358        2.98201143396686
16
 energy: 3.440890388571 xtb: 6.7.1 (edcfbbe)
C           -0.86935871133659        0.52658738790772       -0.06628407147467
C           -0.00161562695836        0.33097797072855       -1.05635823785377
C            1.44186719563839        0.15302412984081       -0.94020956929819
C            2.27022638511073        0.70280353938099       -0.05928200341602
C            1.42941445162303        1.53842714268672        2.88110520045671
C            0.13480570031487        1.35090540907354        3.03336054577579
H           -0.60060074330046        0.56941410802803        0.96549466514762
H           -1.92425440650618        0.64321302923324       -0.26555839163008
H           -0.37701743133595        0.23991648603123       -2.05765672163312
H            1.86165858357630       -0.50154744578984       -1.69481357610692
H            3.31844686870124        0.44294078590952       -0.04746813697415
H            1.96744271088224        1.44843091674422        0.66035642810321
H            2.10573156120767        0.70893562047074        2.74689117362008
H            1.86746123647511        2.52782089616409        2.89083024559961
H           -0.55838166196136        2.16117805470258        3.19597280845516
H           -0.30582720318903        0.37144928288717        3.01361841657212
16
 energy: 3.224437979832 xtb: 6.7.1 (edcfbbe)
C           -0.84102826816212        0.48196619804953       -0.03895562272303
C           -0.01704868545441        0.36920226168897       -1.08019867355198
C            1.42469939837409        0.14151435908403       -0.97720308021547
C            2.23546501496949        0.66963017834979       -0.07226107325026
C            1.44608302931286        1.56456976658642        2.88281597570566
C            0.15173373173214        1.36735681369687        3.02728660884056
H           -0.51675549886291        0.35927709893127        0.99969842881574
H           -1.90332802213329        0.65656601267451       -0.17175637803953
H           -0.41561561099360        0.42899159891729       -2.09990245135060
H            1.83376209611389       -0.50035412817097       -1.74809795166476
H            3.28392862163491        0.41547331533471       -0.02191964530510
H            1.90015743929274        1.39952172923725        0.64937730637466
H            2.14100135927605        0.73886436137080        2.81275684959855
H            1.86379506516115        2.56330282051553        2.84017291059370
H           -0.55305022062852        2.17947034448939        3.12561847095777
H           -0.27380054069109        0.37912458324411        3.07256710055790
16
 energy: 2.881382351251 xtb: 6.7.1 (edcfbbe)
C           -0.83717430158495        0.45883274211650       -0.02938690055969
C           -0.01938202706584        0.38279464743662       -1.07804059332594
C            1.41909348970981        0.14503776199623       -0.98612232800470
C            2.22689453764266        0.66566086870738       -0.07586282199454
C            1.45147414288536        1.57183970436730        2.88300410857224
C            0.15740923926581        1.37139891163591        3.02367977378628
H           -0.50224747218181        0.32769310672991        0.99225709587356
H           -1.89426658057404        0.65792390998153       -0.15167735974347
H           -0.41919870972235        0.45752575033064       -2.09088287386607
H            1.82401438136153       -0.49430784983579       -1.76178816938986
H            3.27137430164462        0.40530142369138       -0.01400883981008
H            1.88330179154184        1.38192391484218        0.65020002733930
H            2.15098908067287        0.75012956519376        2.83267120873949
H            1.86417143043054        2.56956384840601        2.81712118267240
H           -0.55184311867901        2.17948006924196        3.09393576385163
H           -0.26461127640578        0.38367893915802        3.09489950120334
16
 energy: 2.750062972453 xtb: 6.7.1 (edcfbbe)
C           -0.82823776478118        0.44373468825565       -0.01816964362339
C           -0.02527450968210        0.41241728626187       -1.06752297985244
C            1.40677903333176        0.14767471140374       -0.99718050626486
C            2.21203817863994        0.64944198053456       -0.07364388843432
C            1.46146290828758        1.58786862158180        2.87711572912545
C            0.16861825013679        1.37919834048596        3.01480772217071
H           -0.47629266755161        0.24090898631789        0.98157990795938
H           -1.87682478721142        0.64968847647140       -0.10773289569657
H           -0.43052051902416        0.51504273114697       -2.06250599823117
H            1.80299755147050       -0.48054936719996       -1.78681139709400
H            3.25265685154987        0.38919855487568       -0.00736287728487
H            1.85502508114817        1.34982555970952        0.65371635356379
H            2.17165237584803        0.77402691532648        2.87836032386049
H            1.86465575136999        2.58253825036758        2.75963162394720
H           -0.55187665807957        2.17800203914277        3.01959566831002
H           -0.24686016651155        0.39545953931768        3.13612163288870
16
 energy: 2.884009908713 xtb: 6.7.1 (edcfbbe)
C           -0.81948648064616        0.39677345556739        0.01217371313887
C           -0.03308968642005        0.43051260785026       -1.05549981698311
C            1.39618260988676        0.14901281433451       -1.01268570846053
C            2.19959004311862        0.62697927975208       -0.07223330368311
C            1.46983790202184        1.60732246567440        2.86492470758874
C            0.17778291419961        1.39040161218295        2.99640562064185
H           -0.44226177207277        0.13059141460324        0.98440367049985
H           -1.86412142268486        0.65554072279587       -0.04437900148871
H           -0.44973120709336        0.61995261151951       -2.04928182096013
H            1.78373582229577       -0.46415735705219       -1.81767334947496
H            3.23956263714462        0.37020688848503       -0.00609099387372
H            1.82942992171899        1.31277139267535        0.66149428728761
H            2.19228786165445        0.80129030366331        2.93001674399892
H            1.86307034333152        2.59936313560810        2.69354567608293
H           -0.55397332233260        2.17849651020773        2.93695661051640
H           -0.22881725518151        0.40941945613214        3.17792174051356
16
 energy: 3.060178436156 xtb: 6.7.1 (edcfbbe)
C           -0.82189975301912        0.38579141944451        0.02906073708406
C           -0.03431614058847        0.43733203564524       -1.03586415686847
C            1.39483246207882        0.15587190877841       -1.00892644208006
C            2.20711196633370        0.62023078079413       -0.06846116792637
C            1.46863467797338        1.61405521378699        2.85236438429321
C            0.17646293499521        1.39472137717128        2.97667658418857
H           -0.44582251186503        0.09396804310220        0.98618331352296
H           -1.86364809288415        0.65330064651941       -0.01800492384526
H           -0.45441182262144        0.64059932424187       -2.01839607122018
H            1.77757124950427       -0.44655905853334       -1.82294091915608
H            3.24762211602391        0.36033712117878       -0.01746349048199
H            1.84169335009168        1.29676914655052        0.67813001400509
H            2.19185166894058        0.81734891351940        2.94332271746286
H            1.86152121910412        2.59877041443356        2.65269689773186
H           -0.55922672909393        2.16995021166860        2.88914313285622
H           -0.22797768603268        0.42198981569816        3.18247816577825
16
 energy: 3.739992428235 xtb: 6.7.1 (edcfbbe)
C           -0.82379851318668        0.36627516794739        0.07474806483222
C           -0.03974355593169        0.46373348073232       -0.99094574804629
C            1.38944781095943        0.16987172137607       -0.99701083389888
C            2.22608185272396        0.60323379763066       -0.06518126409441
C            1.46402000242709        1.63208594688995        2.81521132309323
C            0.17215380073352        1.40466111844640        2.92635615553900
H           -0.44907639430871       -0.03630119385299        1.00850557460050
H           -1.86016385056578        0.64983463396575        0.05773321454727
H           -0.46913220734499        0.71229249940741       -1.94458391418347
H            1.75770429414641       -0.40327939939041       -1.83809772288349
H            3.26797839346058        0.33397862851799       -0.04694451739924
H            1.87929746947698        1.25805714314804        0.71385967721830
H            2.19385635810256        0.85424481936902        2.98896227387436
H            1.85223686809974        2.60261987753826        2.54429842198309
H           -0.57731554039792        2.15620373030333        2.74952624377248
H           -0.22354787945369        0.44696534197064        3.20356182639051
16
 energy: 4.743392563644 xtb: 6.7.1 (edcfbbe)
C           -0.83113281743397        0.34990292919430        0.12379134028437
C           -0.04112216221191        0.45537006853510       -0.92460775679605
C            1.39034080541358        0.17526610828363       -0.96112471322108
C            2.26032055866314        0.59249122699282       -0.05675414285527
C            1.44870640169370        1.64262209496241        2.76497846450252
C            0.15690194340771        1.40994871169558        2.86461931310712
H           -0.48291367665406       -0.09756044895055        1.03350983604026
H           -1.86001756765273        0.63470558494589        0.11180178567400
H           -0.47485763601168        0.76957954320053       -1.86858649822371
H            1.74730158315959       -0.35889806045798       -1.83567965138427
H            3.30617924809074        0.32207926019655       -0.09196729024228
H            1.95400421700769        1.23782098605596        0.74911796862034
H            2.18043363688472        0.88195962100020        3.01346334099403
H            1.83841200580072        2.59458084795595        2.45068482148573
H           -0.59880394091410        2.13509679759667        2.62607124797634
H           -0.23375369030221        0.46951204279286        3.20068070938363
16
 energy: 5.623532281552 xtb: 6.7.1 (edcfbbe)
C           -0.83424190147573        0.31718303855985        0.17341611812818
C           -0.03999516013860        0.47080905794177       -0.88306400193285
C            1.39136919824905        0.18734412457030       -0.93950626137489
C            2.28958324630661        0.57979812737983       -0.04680880623569
C            1.43483321234872        1.64788915725901        2.73459356874102
C            0.14186588373879        1.41303465854980        2.81574408486603
H           -0.50371331946739       -0.16654583054936        1.06819829528218
H           -1.85979374858186        0.63622579729092        0.16014782411126
H           -0.47504215423674        0.82034724783409       -1.81261315089440
H            1.73327626695619       -0.32814481574211       -1.83151377256003
H            3.33507511938429        0.31062762653692       -0.12404604934767
H            2.02427044421812        1.22487179037928        0.77049437469768
H            2.16173106729345        0.90665516339925        3.01578983182596
H            1.82355618735514        2.58882501901760        2.37842693668148
H           -0.61454766611082        2.11511779778227        2.53562452035314
H           -0.24822776689814        0.49043935379057        3.18511526300469
16
 energy: 6.597536617832 xtb: 6.7.1 (edcfbbe)
C           -0.83191667130734        0.30392873154574        0.20616065361297
C           -0.03578850842588        0.47606366257720       -0.84545238492441
C            1.39462622647495        0.19709065513038       -0.92070284704094
C            2.31276983813749        0.58482293561533       -0.04755858412512
C            1.42010124801962        1.65123923914565        2.69597690322158
C            0.12831410093897        1.41130705349832        2.77323524262800
H           -0.51907679760661       -0.21013660462371        1.09478349279612
H           -1.85673890160102        0.64304427511789        0.18808931744816
H           -0.46873699254113        0.84121399624621       -1.76368831800372
H            1.72144611133852       -0.31753531413038       -1.81407168871176
H            3.35108721154850        0.30779733233477       -0.13915721907376
H            2.07702693464673        1.22596542679179        0.77821757597148
H            2.14898317970662        0.91896202757819        3.02577362642281
H            1.80740104477234        2.58300498167522        2.32935227797614
H           -0.62712727845325        2.09748459792924        2.46116224389295
H           -0.26237183670727        0.50022431756823        3.17787848325589
16
 energy: 8.173610686201 xtb: 6.7.1 (edcfbbe)
C           -0.82645644153702        0.30847771044456        0.22963316267966
C           -0.02367197866899        0.46958900154855       -0.80611500822120
C            1.40516354212997        0.19965373068334       -0.89061972073814
C            2.34215587704743        0.60536125136711       -0.05216025026547
C            1.40161298442079        1.63955608491662        2.68072337339518
C            0.11058534333318        1.39719815805781        2.75046289122122
H           -0.54613544568612       -0.20647513394536        1.12708111767739
H           -1.85221574263580        0.64855290179824        0.18699945315059
H           -0.44924545482055        0.83565434741848       -1.72376781368640
H            1.71375647151239       -0.32958707348120       -1.77432343093908
H            3.36832433937690        0.31945288163243       -0.14654153174741
H            2.14326754642741        1.25630172317166        0.76645272784636
H            2.11996056230210        0.92025056214167        2.99585797611255
H            1.78546945948852        2.57232065830984        2.30355917747986
H           -0.64202423199362        2.07579053915371        2.40910375300556
H           -0.29054792175510        0.50237997078262        3.14365289837582
16
 energy: 7.651536225318 xtb: 6.7.1 (edcfbbe)
C           -0.82533691860490        0.29914506060257        0.23819492000373
C           -0.02389244158065        0.48266447787201       -0.79970898081930
C            1.40320880117388        0.19512004879381       -0.89006673434520
C            2.33973090229493        0.59669699114626       -0.04773443073148
C            1.40380295839988        1.64477869127852        2.67543976245282
C            0.11204937694425        1.40081081234124        2.73478668777108
H           -0.54055592025466       -0.23166454143620        1.12597026235723
H           -1.84631258548739        0.63687613154162        0.20593691783074
H           -0.45514862066008        0.86963741263195       -1.71550384357174
H            1.70563754720941       -0.33039566440267       -1.78437980097556
H            3.36830751532198        0.31438893845697       -0.14775884586044
H            2.13529582675080        1.25303055505665        0.76472823431261
H            2.12882752040622        0.92657646283712        3.02007444867588
H            1.78254356238367        2.57940695697021        2.27518212871050
H           -0.64206186819597        2.07282254880748        2.37938098182769
H           -0.28609674715997        0.50458243150256        3.16545706770802
16
 energy: 7.972413328621 xtb: 6.7.1 (edcfbbe)
C           -0.82905344305187        0.31110498596392        0.21597351299017
C           -0.01933357594096        0.48610708204967       -0.82361443935752
C            1.40756225519606        0.18645720073447       -0.89211502948215
C            2.33385317073195        0.60170881315462       -0.04306762861721
C            1.40213062229593        1.64080298848784        2.67251481071640
C            0.11140017251475        1.39843072583558        2.74431327274670
H           -0.54073714292328       -0.17894581619671        1.11592322005676
H           -1.85087990371265        0.63302384387359        0.17229828332593
H           -0.44914480262152        0.83637963537921       -1.74769852224143
H            1.71361641442599       -0.35749077048037       -1.77844552153611
H            3.36823967698332        0.32290577502817       -0.13819297802839
H            2.11729355822491        1.28055478862084        0.75028755751426
H            2.13168802061793        0.90966264404845        3.00703280672779
H            1.78619750869337        2.57440080169636        2.34103810023979
H           -0.63169361848571        2.07362184034577        2.45286980705867
H           -0.29114000400677        0.49575277545860        3.15088152323268
16
 energy: 7.399872897470 xtb: 6.7.1 (edcfbbe)
C           -0.82745533296831        0.30405643261589        0.22166720663833
C           -0.02059162904013        0.48464765541056       -0.81538390471182
C            1.40629997696403        0.18997754374715       -0.89317090982879
C            2.33475509188143        0.60576988710812       -0.04709689716314
C            1.40450608065994        1.64137645904535        2.67916715748927
C            0.11478240900998        1.39542527340992        2.75333613509716
H           -0.53649346235723       -0.20461155971520        1.11659596495347
H           -1.85024474680541        0.64204184695944        0.18402077414181
H           -0.45045330437546        0.84984545201335       -1.73773167701987
H            1.70992506716955       -0.35765890316451       -1.77571659133887
H            3.36688027299511        0.31912114845674       -0.13674461285796
H            2.11751904909138        1.27984608438948        0.75156271540840
H            2.13323559832311        0.91572981384785        3.01420321861632
H            1.78465660983442        2.57692063543428        2.31880674271816
H           -0.63967763101515        2.07417667883598        2.41079363006329
H           -0.28764514042582        0.49781286560563        3.15568982314066
16
 energy: 8.114954760602 xtb: 6.7.1 (edcfbbe)
C           -0.82522404865123        0.30660440352317        0.23079979803152
C           -0.01688611450204        0.48202243300626       -0.79734073704615
C            1.40965067871760        0.19109665176245       -0.88069955948794
C            2.34660485740999        0.61774271776718       -0.05130688927224
C            1.39891298118679        1.63521334095889        2.68077608886841
C            0.10590147864710        1.39317281958530        2.72791359404882
H           -0.54505015522029       -0.21963988712101        1.12886629067769
H           -1.84869265602384        0.64863514732893        0.18890699303963
H           -0.44335128453534        0.85589152841069       -1.71979782385983
H            1.70570064875793       -0.36984610381647       -1.75344855735727
H            3.37306246388008        0.31992952938449       -0.13543111792362
H            2.14276755122981        1.30036845665301        0.74225467217557
H            2.12109517891280        0.91781727382178        3.00282295830700
H            1.77554125255033        2.57622239824396        2.28844553543381
H           -0.64269782151074        2.06293104324771        2.38791010158750
H           -0.29733610190744        0.49631556124371        3.15932742812353
16
 energy: 8.100412211162 xtb: 6.7.1 (edcfbbe)
C           -0.82793629017540        0.30425808969365        0.23296830882833
C           -0.01426313916091        0.48776291425524       -0.79479812699500
C            1.41173437560195        0.18921147571961       -0.87446434869968
C            2.35055374690908        0.62005460781206       -0.04783518627013
C            1.39560807555856        1.63550670995954        2.67064263325924
C            0.10478822471410        1.38947140554329        2.72906834895345
H           -0.55050128932882       -0.21279493067123        1.12989565121976
H           -1.84954622385102        0.64371404979567        0.18786073724483
H           -0.44003588151584        0.85584479101900       -1.71737037108073
H            1.70493742509934       -0.37929640916421       -1.74553410455772
H            3.37776639530581        0.31957933411562       -0.13409000353171
H            2.14929409449887        1.31553851506330        0.73620858122063
H            2.12205994379074        0.91581647007860        3.00883990185249
H            1.77259434337934        2.57396881659994        2.29261484110147
H           -0.64646950907850        2.05891164316154        2.37728417232270
H           -0.30058538280575        0.49692983101842        3.14870774047855
16
 energy: 8.327433301906 xtb: 6.7.1 (edcfbbe)
C           -0.83001449088318        0.30281930489596        0.23180034173705
C           -0.01077321025845        0.49095572951824       -0.79172724680591
C            1.41451043853024        0.18412192633343       -0.86474468973375
C            2.35376832412065        0.62949238360837       -0.04634635868546
C            1.39297215637643        1.63339313216338        2.66520607141278
C            0.10315728115144        1.38543770604427        2.72549361322590
H           -0.55513890597754       -0.21525548158165        1.13033067466823
H           -1.85050136548219        0.64766606227564        0.18349931720081
H           -0.43369996171809        0.86011979540629       -1.71842633001135
H            1.70447917515115       -0.40444238338291       -1.72506005609679
H            3.37966956479541        0.31911211513239       -0.12381147406248
H            2.15408123978462        1.34859534506097        0.71780550223937
H            2.12050170242828        0.91408143116397        3.00511626852644
H            1.76977003259182        2.57064111549714        2.29864490014911
H           -0.64830356510307        2.05262479997535        2.36822125095336
H           -0.30447950656594        0.49511433188921        3.14399699062915
16
 energy: 9.633956565658 xtb: 6.7.1 (edcfbbe)
C           -0.84172032381956        0.30557256104003        0.22517119855999
C            0.00379682036696        0.49876794996773       -0.77730626578575
C            1.42693694110965        0.16762721578626       -0.81975494602591
C            2.37196437513760        0.67524441802119       -0.04072537497936
C            1.38108952544517        1.61872388278320        2.64962236426952
C            0.09336767688020        1.36655187175898        2.70772009161631
H           -0.58530963675820       -0.19604780019697        1.13236205159240
H           -1.85839187293341        0.66000821761626        0.15710899609593
H           -0.40268736299403        0.84660408895214       -1.71716964221342
H            1.70599070594004       -0.50748751652650       -1.62790051248124
H            3.38996751331386        0.32140151098816       -0.08247585705145
H            2.18814657544738        1.49039524824009        0.64310478826427
H            2.11121467871164        0.89754332413033        2.99379053440018
H            1.75562620696834        2.56035116211356        2.29906664837260
H           -0.65695078456158        2.02615161816240        2.33600939385038
H           -0.32304212931234        0.48306956116307        3.12137530686184
16
 energy: 9.891789488442 xtb: 6.7.1 (edcfbbe)
C           -0.84342333635786        0.30449933564208        0.23055226500778
C            0.00351833789680        0.49764349959452       -0.76897828374448
C            1.42667205825044        0.16656924095208       -0.80940642818554
C            2.37536682312512        0.67959865075806       -0.04056286136921
C            1.38032424438980        1.61935863854323        2.64306618068155
C            0.09205397535845        1.36767168141234        2.69597647907462
H           -0.59368652506853       -0.21344847622078        1.13685210577446
H           -1.85806538053627        0.66247891252522        0.16289996727212
H           -0.40001118226919        0.85659158860787       -1.70933549595295
H            1.70560775245245       -0.51478838785120       -1.60751351790304
H            3.39022252825976        0.32114350944314       -0.07801056813436
H            2.19942905702471        1.49719738239862        0.63485617646982
H            2.10882932568611        0.90211134305758        2.99019009600876
H            1.75511268273054        2.55874866491497        2.28346243649472
H           -0.65801827093163        2.02204251460229        2.31949409130651
H           -0.32393318106897        0.48705921561991        3.11645613254554
16
 energy: 10.873053892823 xtb: 6.7.1 (edcfbbe)
C           -0.85769126167422        0.30535623998689        0.22796929087333
C            0.00547038348869        0.48920643037768       -0.75603509072673
C            1.42893393424861        0.15401394516938       -0.76512921039049
C            2.38154536810694        0.71135464806834       -0.03478130275766
C            1.38058672790429        1.61346657902986        2.62662068162004
C            0.09137215134710        1.36531911306731        2.66946476840177
H           -0.62814322742453       -0.22161725920790        1.13566228964499
H           -1.86645186826312        0.67957379632849        0.15016911648845
H           -0.37937085723391        0.84699931409410       -1.70430029379753
H            1.71335114412478       -0.58106854282201       -1.50780473725922
H            3.38600341732504        0.32673670938745       -0.03808975429568
H            2.22608838338088        1.57625620563625        0.57689416632154
H            2.10391011208308        0.89984196834255        2.96770858526084
H            1.75796897040030        2.55068992487972        2.25605952934456
H           -0.65812233483602        2.01233832767907        2.28819552926350
H           -0.32545213403616        0.48600991398264        3.10739520735456
16
 energy: 11.133698848111 xtb: 6.7.1 (edcfbbe)
C           -0.86039793538600        0.30678006043189        0.22910890098400
C            0.00477450886070        0.48639852704710       -0.75559865654092
C            1.42924517292239        0.15399099082755       -0.75903044032835
C            2.37927294270805        0.71432448370032       -0.02842351706590
C            1.38280410045292        1.61097763345647        2.61807436635458
C            0.09330239826737        1.36506607622686        2.66715907392145
H           -0.63796436808716       -0.23213853919903        1.12912125937078
H           -1.86776696640992        0.68002529210568        0.14947731531236
H           -0.37574219694406        0.84740073695594       -1.70227957476443
H            1.71694365474946       -0.58235716928788       -1.49767895295894
H            3.38478322556835        0.33306390036525       -0.02928823663930
H            2.22395191449734        1.58356697913647        0.57414691670070
H            2.10768724836571        0.89692033988421        2.96510318472742
H            1.75990074910433        2.54707550393096        2.24367906864241
H           -0.65858695398714        2.01602987280195        2.29516835955838
H           -0.32220858574058        0.48735262561608        3.10125970807200
16
 energy: 11.746731466246 xtb: 6.7.1 (edcfbbe)
C           -0.86693324255479        0.30415102705694        0.22888978085384
C            0.00396396710909        0.48141131599445       -0.75285198121929
C            1.43012832982186        0.15381752228611       -0.74652959447079
C            2.37637584219773        0.72379852190174       -0.01911878409949
C            1.38623324751104        1.60741985995166        2.60578908695246
C            0.09691034272665        1.36317261656772        2.66128670287094
H           -0.65524377885790       -0.24730887181033        1.12196513156446
H           -1.87005016400007        0.68451872315859        0.14714584311986
H           -0.36824049328525        0.84826423620221       -1.69816659736515
H            1.72424759233336       -0.58709900113434       -1.47653226749045
H            3.38196507068523        0.34332887879284       -0.00820082830703
H            2.22071708363213        1.60219162748511        0.56680554215699
H            2.11303573493546        0.88888451895507        2.94878347965907
H            1.76290150557122        2.54248854269666        2.22862318010771
H           -0.65821552630912        2.01898412526658        2.30313855072769
H           -0.31779660257485        0.48645367062885        3.08897153028547
16
 energy: 12.595889913689 xtb: 6.7.1 (edcfbbe)
C           -0.87486877297709        0.30192694932405        0.22896044819546
C            0.00446073412624        0.47833450961655       -0.74630849834856
C            1.43166233763189        0.15292205993927       -0.72815183249974
C            2.37418918503806        0.73834274762380       -0.00825753433556
C            1.38992832218323        1.60109538386365        2.58859553296998
C            0.10101581314132        1.35807212623983        2.65033935376370
H           -0.67764771819950       -0.26312006803694        1.11638747736961
H           -1.87389923342187        0.69027673874872        0.14114354785543
H           -0.35809561723538        0.84926433041195       -1.69235823856558
H            1.73315142343457       -0.59765566960781       -1.44459807832591
H            3.37888160046088        0.35607945761561        0.02031581406367
H            2.21898058828358        1.63257697474530        0.55251749542173
H            2.11811241448249        0.87679307013812        2.92102253828472
H            1.76554405492638        2.53944337940260        2.21955030277700
H           -0.65745740145463        2.01940412850672        2.31011919684310
H           -0.31395882147830        0.48072119546846        3.07072124987726
16
 energy: 14.112094898454 xtb: 6.7.1 (edcfbbe)
C           -0.88951565059740        0.29734265056492        0.22835755418901
C            0.00731644110236        0.47548901740808       -0.73129496249776
C            1.43544675588908        0.15143198127785       -0.69121200318918
C            2.37290484222349        0.76972195502828        0.00906170496096
C            1.39523462020138        1.58839338428468        2.55978770625998
C            0.10720128583907        1.34629508296832        2.62893644402376
H           -0.71983311499404       -0.28582727774866        1.11037019564039
H           -1.88096594686940        0.70240798558018        0.12696836653391
H           -0.33849462549736        0.85168834543468       -1.68073568058964
H            1.74806097241740       -0.62499194259348       -1.37570799036905
H            3.37370944465446        0.37902410620151        0.07445138296326
H            2.22085317488946        1.69833861894133        0.51681012709448
H            2.12499418899535        0.85183979855712        2.86338348786789
H            1.76866762033779        2.53553452932816        2.21234806719441
H           -0.65622128071701        2.01546175845184        2.31934881963192
H           -0.30935981893268        0.46232732031509        3.02912555563197
16
 energy: 14.869265455145 xtb: 6.7.1 (edcfbbe)
C           -0.89769782952053        0.29511083746813        0.22708032469276
C            0.01098757783096        0.47715100097443       -0.71982092950549
C            1.43860783041676        0.15149000961981       -0.66591656601221
C            2.37537791304520        0.79303309296759        0.01523982122428
C            1.39673549963807        1.57823517221136        2.54313812866568
C            0.10925659963265        1.33563658372731        2.61298245719636
H           -0.74492313373100       -0.29150115349707        1.11037752612099
H           -1.88495552333434        0.70967783974017        0.11489252326727
H           -0.32630092723715        0.85412423729889       -1.67281409308749
H            1.75406796988746       -0.64909881615714       -1.32227768188391
H            3.37098447202640        0.39285317483692        0.10524510878247
H            2.22868816188574        1.74374211634921        0.48570866759744
H            2.12599815221344        0.83622121907887        2.82726654259663
H            1.76842190902844        2.53432442245642        2.21850158521312
H           -0.65612976117958        2.00918308805062        2.32343680843635
H           -0.30912000166049        0.44429448887433        2.99695855204209
16
 energy: 14.751827678999 xtb: 6.7.1 (edcfbbe)
C           -0.89870745878476        0.29514880803750        0.22498041892761
C            0.01389699526249        0.48203157724834       -0.71516756224044
C            1.44007753268945        0.15294625188083       -0.65695835704163
C            2.38019564569846        0.80178803425631        0.01124791922953
C            1.39482278558770        1.57456318446495        2.54350182428569
C            0.10731582186953        1.33060592325403        2.60857505098059
H           -0.74893901423328       -0.28332420352313        1.11401666550537
H           -1.88593250464473        0.70954917659505        0.10770512616891
H           -0.32372393420345        0.85673816183269       -1.67039522812160
H            1.75025939170629       -0.66249675304874       -1.29613077287855
H            3.37164526381142        0.39576113477360        0.10558251678152
H            2.23978965030190        1.75751143405006        0.46871951172980
H            2.12251344615208        0.83285782472776        2.81903947116935
H            1.76588619448048        2.53394593799299        2.22940580699400
H           -0.65724712777340        2.00357613971607        2.32271811914691
H           -0.31185377897814        0.43327468174153        2.98315826470933
16
 energy: 14.585014165780 xtb: 6.7.1 (edcfbbe)
C           -0.89954284144688        0.29548255009141        0.22313398422565
C            0.01493413964668        0.48464850071168       -0.71431564774260
C            1.44053894714281        0.15366662226204       -0.65267882897453
C            2.38312560253124        0.80449826118005        0.00955007431058
C            1.39371123856790        1.57291659570850        2.54393694966929
C            0.10600901259625        1.32877685931588        2.60780012094240
H           -0.75030490593787       -0.28078979015173        1.11410228245114
H           -1.88748097054755        0.70727535040786        0.10371332058053
H           -0.32247135478863        0.85945203573362       -1.67001216703302
H            1.74667688219290       -0.66975384548938       -1.28227400629662
H            3.37339344096554        0.39592142823327        0.10246344549666
H            2.24719568662988        1.76489685502679        0.45958412074379
H            2.12131885066807        0.83178984320319        2.81832237627149
H            1.76430408611269        2.53259622075617        2.23129530068231
H           -0.65917625582703        2.00274633712180        2.32463006774856
H           -0.31223264956396        0.43035348988867        2.98074738227070
16
 energy: 14.096631692308 xtb: 6.7.1 (edcfbbe)
C           -0.90176001740161        0.29511318137000        0.21858568204578
C            0.01566819813526        0.48920291942215       -0.71488967864115
C            1.44079124298169        0.15606875537708       -0.64653260370660
C            2.38942401791163        0.81030597727770        0.00328148027227
C            1.39143177097099        1.57102668930421        2.54510187324760
C            0.10327469714042        1.32832313611556        2.61146344665170
H           -0.75121118031548       -0.27914986298827        1.11114798099298
H           -1.89167096501488        0.70036961741144        0.09691194807944
H           -0.31984273515298        0.86713107360578       -1.67012901113759
H            1.73803381369295       -0.68418818217473       -1.25627947892198
H            3.37727666051984        0.39355179590876        0.09483232497841
H            2.26204929579510        1.77570832742593        0.44434174256395
H            2.11981968081037        0.83069712402902        2.82087632326092
H            1.76143372038820        2.52901680560856        2.22822897959750
H           -0.66303868517781        2.00268179785973        2.32913921424795
H           -0.31168060634165        0.42861815844693        2.98391855181515
16
 energy: 14.086306941166 xtb: 6.7.1 (edcfbbe)
C           -0.90303251980779        0.29385367821184        0.21813358664904
C            0.01500918988189        0.48912571361655       -0.71480651677679
C            1.44018686116761        0.15519614146498       -0.64464900863890
C            2.38857492210544        0.80983408603396        0.00464700591870
C            1.39161936216849        1.57064641409922        2.54239587713449
C            0.10370353554426        1.32827612372966        2.61173344791115
H           -0.75221827155714       -0.28269488949679        1.10893003189935
H           -1.89280982713161        0.69954804027385        0.09683850992292
H           -0.31741246761542        0.87075915940513       -1.66926756396588
H            1.73838421511576       -0.68484809978154       -1.25361457513290
H            3.37669704824409        0.39413572518409        0.09617592906565
H            2.26252755279607        1.77853541502647        0.44144910149997
H            2.12042343018014        0.83053745638824        2.82071054432868
H            1.76172969824726        2.52856952967571        2.22377151169663
H           -0.66258004147887        2.00301120811414        2.32955769494546
H           -0.31080377891816        0.42999161205433        2.98799319888881
16
 energy: 14.027338019399 xtb: 6.7.1 (edcfbbe)
C           -0.90337331494377        0.29318969078573        0.21827258696326
C            0.01421517502104        0.48982503422594       -0.71474055717573
C            1.43939961673088        0.15510554186889       -0.64467653213367
C            2.38804562513378        0.81100519408331        0.00306830020609
C            1.39165777575966        1.57089822093663        2.54115671375170
C            0.10400392326396        1.32819616365675        2.61267954978616
H           -0.75160335471046       -0.28638678317301        1.10682328240082
H           -1.89328355017656        0.69892216354022        0.09789540213938
H           -0.31548278624403        0.87534458986685       -1.66812548964178
H            1.73819485506630       -0.68624382631556       -1.25219771307108
H            3.37558380858441        0.39411118183638        0.09801245557644
H            2.26178673707339        1.77805999047881        0.44060740576341
H            2.12085523851211        0.83135765676309        2.82173982149304
H            1.76198613654659        2.52742583829571        2.21807834807777
H           -0.66163019188182        2.00226605360007        2.32787068510937
H           -0.31035678479345        0.43140060355005        2.99353451610116
