16
 energy: 0.000000000000 xtb: 6.7.1 (edcfbbe)
C           -0.77705358962067        1.00256531388960       -0.37427006004611
C            0.00803256125606       -0.06812763652329       -0.41521319054704
C            1.46197102642616       -0.06812564178421       -0.41521217663121
C            2.24705442695429        1.00256929403646       -0.37426771729741
C            1.39307066534339        1.26847997603248        2.85079349949180
C            0.07692556821269        1.26848872121441        2.85080241843411
H           -0.38376941678460        2.00369806429917       -0.34107369651756
H           -1.85021732606258        0.91469753527342       -0.37351699803135
H           -0.44762220569676       -1.05037115376285       -0.44792896061413
H            1.91762851892125       -1.05036787095517       -0.44792786529427
H            3.32021831764553        0.91470438222659       -0.37351370286549
H            1.85376766457729        2.00370085525613       -0.34107228876692
H            1.96396422140850        0.35981624292725        2.94334122046779
H            1.96586732819686        2.17645147372874        2.75784402536034
H           -0.49586098536360        2.17646660814987        2.75785888081288
H           -0.49397786647237        0.35983114999089        2.94335538738743
16
 energy: 0.000381517300 xtb: 6.7.1 (edcfbbe)
C           -0.77788032674989        1.00192730819101       -0.36898626873236
C            0.00808251302897       -0.06781269343901       -0.41526289237020
C            1.46159496418375       -0.06714699467776       -0.41522001057605
C            2.24766032996325        1.00270927821693       -0.36959883761440
C            1.39324407432923        1.26862703301925        2.84652781406417
C            0.07708721627463        1.26825209597118        2.84681304832647
H           -0.38519069941314        2.00214332866414       -0.33138313700727
H           -1.85057474063371        0.91413194588013       -0.37008087807928
H           -0.44733912763368       -1.04943490897354       -0.45390771032365
H            1.91742803855067       -1.04857516193514       -0.45354935761038
H            3.32024041425606        0.91267327021487       -0.36763475569470
H            1.85609341518247        2.00414036859759       -0.33586391456784
H            1.96426598917677        0.35986197493161        2.93923817584779
H            1.96509565354624        2.17723114591463        2.75434354364621
H           -0.49576410407102        2.17580906657329        2.75695356821818
H           -0.49404470104913        0.35994025685031        2.93761038781614
16
 energy: 0.000633306867 xtb: 6.7.1 (edcfbbe)
C           -0.77898366461374        1.00147184716771       -0.36100976146110
C            0.00794578773265       -0.06721037522165       -0.41663773582490
C            1.46138671402865       -0.06599143176896       -0.41602299847161
C            2.24853066483211        1.00281731449157       -0.36251205401274
C            1.39331627659056        1.26881894062793        2.83948919844222
C            0.07715216220007        1.26786928763867        2.84024617782583
H           -0.38691242433412        2.00156804943918       -0.31356406404921
H           -1.85164520820252        0.91289526494443       -0.36292429752742
H           -0.44696226166185       -1.04876797113515       -0.46365420515783
H            1.91719276525093       -1.04715169337305       -0.46093770719475
H            3.32093885023234        0.91049409418580       -0.35803231909332
H            1.85881193227070        2.00482859403155       -0.32427607559895
H            1.96476316877640        0.36015493832107        2.93038934295738
H            1.96439283131005        2.17798629679176        2.74814996341180
H           -0.49604626756259        2.17546248285969        2.75291491623185
H           -0.49388241790814        0.35923167499891        2.92838039486560
16
 energy: 0.004862743298 xtb: 6.7.1 (edcfbbe)
C           -0.78071797859872        1.00089932650097       -0.34422063152754
C            0.00775896362274       -0.06584379822995       -0.41922635784866
C            1.46117470790804       -0.06404285416487       -0.41720083135051
C            2.25003509058864        1.00289299950889       -0.34738670570021
C            1.39333357756095        1.26905903027981        2.82402795462023
C            0.07715469530421        1.26703321020180        2.82580494432114
H           -0.39003869363706        2.00074238706122       -0.27702739286874
H           -1.85329313089986        0.91074803838146       -0.34757816897434
H           -0.44620784741477       -1.04719161461167       -0.48359216891323
H            1.91662814797401       -1.04485091560996       -0.47483497135988
H            3.32219927908295        0.90727208225715       -0.33903722736171
H            1.86315576073602        2.00566370142050       -0.29912353011330
H            1.96565138616292        0.36062174511944        2.91159998055160
H            1.96328940908896        2.17914365898368        2.73481341046003
H           -0.49674471220569        2.17458669706696        2.74275288603025
H           -0.49337974633180        0.35774361983401        2.91022758537768
16
 energy: 0.034685261824 xtb: 6.7.1 (edcfbbe)
C           -0.78335770805911        1.00015490499401       -0.31074444478202
C            0.00756329420543       -0.06298063862046       -0.42336616693174
C            1.46095817932572       -0.06060702265479       -0.41842102892603
C            2.25249199988481        1.00296838027192       -0.31700545010878
C            1.39328886439174        1.26920608515214        2.79241872450909
C            0.07707563375924        1.26524559972249        2.79627083503149
H           -0.39529663843594        1.99924322890581       -0.20569106215386
H           -1.85576773322875        0.90723942717288       -0.31668004759107
H           -0.44488447038647       -1.04356690062418       -0.52183890003792
H            1.91556767337830       -1.04075595145805       -0.50027272906877
H            3.32428750434244        0.90243343710359       -0.30243621570759
H            1.86991996936446        2.00662527720205       -0.24830177650385
H            1.96717352627979        0.36121200455107        2.87427939027271
H            1.96148162478566        2.18074065272553        2.70658773952739
H           -0.49818890161426        2.17251516286310        2.71977629012260
H           -0.49231390905135        0.35480366669234        2.87542361769112
16
 energy: 0.211312905679 xtb: 6.7.1 (edcfbbe)
C           -0.78687374065583        0.99909487289507       -0.25307470821199
C            0.00742984196676       -0.05752158671582       -0.42857268048977
C            1.46070485712156       -0.05473480558877       -0.41853827356701
C            2.25594176848557        1.00307608941871       -0.26454540548074
C            1.39319480782007        1.26881348614653        2.73665402757911
C            0.07689819062725        1.26182693682427        2.74416850181540
H           -0.40303325224851        1.99588077526615       -0.08592761340759
H           -1.85901670486992        0.90211886766467       -0.26321536192614
H           -0.44288501517437       -1.03583191926709       -0.58432880186304
H            1.91392603104605       -1.03341159357096       -0.54048927128071
H            3.32717576472613        0.89553232375094       -0.24060625451302
H            1.87946010305785        2.00743046071686       -0.16108137621589
H            1.96949310400511        0.36167277387800        2.81091532152144
H            1.95877833449367        2.18238312360161        2.65485948893290
H           -0.50063240783991        2.16834141574784        2.67648611632809
H           -0.49056277361954        0.34980609323132        2.81729506612170
16
 energy: 0.868292244525 xtb: 6.7.1 (edcfbbe)
C           -0.79040157962870        0.99664876316849       -0.17901653873304
C            0.00746157840138       -0.04900762588348       -0.43531167158384
C            1.46029170553010       -0.04629776292465       -0.41845977437786
C            2.25958240059202        1.00248131665050       -0.19775038135410
C            1.39315190634392        1.26823923889137        2.66489317760348
C            0.07664973894713        1.25738657628683        2.67768574319673
H           -0.41230108140745        1.98750965964268        0.06485875000724
H           -1.86220574300894        0.89513645087555       -0.19448452453776
H           -0.44037730138832       -1.02172610316190       -0.66481599136427
H            1.91187626492218       -1.02179083254200       -0.59142537794500
H            3.33001088901364        0.88605768799770       -0.16155413402351
H            1.89065504460048        2.00659208722543       -0.05060449309575
H            1.97246320235283        0.36245452566354        2.73121657349353
H            1.95543246060560        2.18433066200148        2.58801244421963
H           -0.50391649315053        2.16266063498738        2.62144750386765
H           -0.48837408378305        0.34380203512037        2.74530746996953
16
 energy: 2.331063273461 xtb: 6.7.1 (edcfbbe)
C           -0.79308039405459        0.99148726886355       -0.10389107971365
C            0.00771187802821       -0.03746242193462       -0.44406320340377
C            1.45958177915707       -0.03558767954984       -0.42006905064755
C            2.26249841005465        1.00027936322127       -0.13041078549286
C            1.39333891269354        1.26827695349980        2.59221347743780
C            0.07640845372729        1.25301809452072        2.61185418793666
H           -0.42188822662747        1.97097124782006        0.21549977150166
H           -1.86452438985321        0.88585854948467       -0.12259461300039
H           -0.43761224523645       -0.99944919699120       -0.75057665737585
H            1.90970157784606       -1.00522871676000       -0.64655927571752
H            3.33181189350385        0.87342855570226       -0.07863119640065
H            1.90211246659284        2.00245172193823        0.06086591715458
H            1.97598176474305        0.36424639999912        2.65010939972028
H            1.95173755233967        2.18736142804230        2.52193660260929
H           -0.50773048080075        2.15667035622392        2.57063028869807
H           -0.48605004317116        0.33815538991898        2.67368499203645
16
 energy: 4.952531361812 xtb: 6.7.1 (edcfbbe)
C           -0.79508397548013        0.98393106432105       -0.03122155188366
C            0.00817863920674       -0.02240512610574       -0.45134946475198
C            1.45851596521711       -0.02196267481949       -0.42091543812345
C            2.26458670170760        0.99705757649029       -0.06312921432056
C            1.39395825731961        1.26810020907226        2.51787513133136
C            0.07632670443119        1.24790453260036        2.54637750891828
H           -0.43152770058213        1.94669391170599        0.35587238255432
H           -1.86611414978807        0.87427844026293       -0.04565649262913
H           -0.43474556964906       -0.96807251310367       -0.83077034715085
H            1.90762440624347       -0.98261742524834       -0.70072479643173
H            3.33227669932384        0.85781196839778        0.00957821862244
H            1.91356464442463        1.99546761382388        0.17048404307390
H            1.98024164261910        0.36619457582231        2.56581045863515
H            1.94768535577851        2.19059961238508        2.45440144749003
H           -0.51182373604720        2.14940908371089        2.52286704306267
H           -0.48366497578228        0.33208646468358        2.60049984694567
16
 energy: 8.093784694637 xtb: 6.7.1 (edcfbbe)
C           -0.79348684198071        0.95996759009928        0.04390284926781
C            0.00930879694526        0.01098079895351       -0.47114733867581
C            1.45543583959550        0.00661479050051       -0.43128422779255
C            2.26294790830738        0.98422489596790        0.00913157806618
C            1.39680512889870        1.27109201767455        2.43955620457328
C            0.07673065070106        1.24263354766318        2.48530066544092
H           -0.44725269912890        1.87546937921259        0.49329322886261
H           -1.86451027974553        0.84754100121766        0.05025861208041
H           -0.42838545406687       -0.88881514332901       -0.93425194497961
H            1.90418642892016       -0.92842063647680       -0.77599135197645
H            3.32644094460001        0.82074852293922        0.12370416434630
H            1.93144620802255        1.97043928300697        0.28174398164932
H            1.98822855273496        0.37361414882447        2.46813358958721
H            1.94103309029805        2.20066565858186        2.39536738365883
H           -0.51775081744894        2.13960862075584        2.50263203506454
H           -0.48117854770949        0.32811283840737        2.51964934616937
16
 energy: 15.646606636153 xtb: 6.7.1 (edcfbbe)
C           -0.79898305795839        0.92356770314376        0.10397386657407
C            0.00971340196321        0.05443999049664       -0.52377595294031
C            1.45203459443236        0.04574813120452       -0.46184842439307
C            2.26436721998334        0.96601518264218        0.09821636767055
C            1.40206376840529        1.27847245348599        2.37006170833312
C            0.08012825604649        1.23835780153421        2.43829566138393
H           -0.46893067534054        1.78242439669754        0.65379234993332
H           -1.86908521625233        0.80019963892509        0.15944539078707
H           -0.42063677112242       -0.78186326271126       -1.05808313401174
H            1.90138279875939       -0.85305539486600       -0.86219011330447
H            3.31717359864101        0.76121940047762        0.26576706358632
H            1.95965573436252        1.94203929402692        0.38933804171185
H            2.00028470926588        0.38670402544384        2.35964357618553
H            1.93070006310614        2.21700796085817        2.33772688841476
H           -0.52117401640862        2.12627805899677        2.50059939295050
H           -0.47869549893983        0.32692193364305        2.42903609246085
16
 energy: 25.571404038682 xtb: 6.7.1 (edcfbbe)
C           -0.81024477966373        0.87710583849684        0.16401570056692
C            0.01069860663314        0.11069601974733       -0.54856811707180
C            1.44911146694248        0.09720581995503       -0.48071843465853
C            2.26580348841974        0.93979660912599        0.14529360870718
C            1.40981544137465        1.29168552013622        2.33599076640927
C            0.08676354609222        1.23623620373104        2.42626312091387
H           -0.50227088084737        1.66366682641269        0.75897875893080
H           -1.87648389793475        0.73165738913093        0.23586854753105
H           -0.41244323630252       -0.65614805200029       -1.23775309635867
H            1.90168907014873       -0.76267082650033       -0.96980566136658
H            3.30058964083869        0.67265727963671        0.40066028887009
H            2.00246790505710        1.91596630901750        0.46202408185628
H            2.01532729301612        0.40939781837860        2.28648407202248
H            1.91698005090319        2.24287224160744        2.31842402830695
H           -0.52216160244931        2.11249104580729        2.54337337253660
H           -0.47564320328470        0.33186127131601        2.35946773814634
16
 energy: 33.888469525734 xtb: 6.7.1 (edcfbbe)
C           -0.83518819571640        0.82736008161472        0.13969086956825
C            0.00869236153085        0.16050825489960       -0.66957683238611
C            1.44603236065271        0.14342184278657       -0.54755504179599
C            2.27750940334289        0.91277919126978        0.20127725140266
C            1.41707652398061        1.31127800270268        2.34034834287285
C            0.09569092040827        1.23724885098490        2.44567978574773
H           -0.54360299173711        1.55791059115450        0.91524939853504
H           -1.89520685331873        0.65216332304902        0.27565881552727
H           -0.39771416511667       -0.53854958593331       -1.35769037480880
H            1.89696127121650       -0.68243012009457       -1.06597318291898
H            3.28657971241913        0.58091963164124        0.50103007321013
H            2.06077645067673        1.89818712821803        0.50781003992625
H            2.03068746225281        0.44002093532405        2.26001356762309
H            1.90209385891327        2.27431436414638        2.32482941208870
H           -0.52176016049137        2.09787336249549        2.59866526001846
H           -0.46862905006970        0.34147145973986        2.33054139073169
16
 energy: 32.968060027784 xtb: 6.7.1 (edcfbbe)
C           -0.85418258381869        0.78295741861753        0.15212957928856
C            0.00595984570498        0.20274302128111       -0.71076016445266
C            1.44443273133733        0.18062943353612       -0.58849964867178
C            2.28673622192218        0.88804312601872        0.21280273723606
C            1.42142004406153        1.33337878887531        2.38338797409057
C            0.10258318862589        1.23897015035073        2.49274444247444
H           -0.57977594825769        1.45441320454023        0.91649132327657
H           -1.90784961113771        0.58894660644136        0.24403856815361
H           -0.38672083998844       -0.43772838057222       -1.47771902478771
H            1.89289015572777       -0.61706254306583       -1.15225663572589
H            3.26928547724365        0.50459439795592        0.50516403743374
H            2.11634278615220        1.88280708037697        0.52249429947199
H            2.04279756626449        0.47297041604964        2.29663104301504
H            1.88805016870131        2.30512779242572        2.36188862562876
H           -0.52505931203738        2.08319007725483        2.67206437814054
H           -0.45691098155779        0.35049672391278        2.36939724077045
16
 energy: 34.657659982861 xtb: 6.7.1 (edcfbbe)
C           -0.87813636877312        0.72444408869404        0.09056227611990
C           -0.00041295095355        0.25675413061614       -0.70400188634285
C            1.44482210950766        0.22950650271292       -0.58279539713800
C            2.29297313253673        0.85846006627387        0.15919413666223
C            1.42367237378315        1.36477122535182        2.45482270491168
C            0.11356598722432        1.24004053939560        2.56796579042001
H           -0.61206806784888        1.31446768469694        0.94303505058251
H           -1.92350323462465        0.51095371532633        0.12604473481816
H           -0.37667809095912       -0.30840167563025       -1.61148242730324
H            1.89338861954888       -0.53545153903976       -1.23174897191853
H            3.23284561581341        0.40684225652456        0.45216243594057
H            2.18878625112870        1.87482048252823        0.51834936744783
H            2.05746284228602        0.51811350562672        2.37932027274024
H            1.86852011140445        2.34510561864078        2.41644215802503
H           -0.53069656869079        2.05543654235917        2.75724989487191
H           -0.43454285243976        0.35861416992183        2.46487863550495
16
 energy: 30.203643291451 xtb: 6.7.1 (edcfbbe)
C           -0.90391540796787        0.68850550381101        0.12740658731134
C            0.00075085018676        0.29034616478673       -0.79583345382849
C            1.44526795343914        0.25913124336247       -0.64809390030255
C            2.30875030444167        0.84160990993089        0.17008954584284
C            1.42432651562635        1.38783023241804        2.48455328439637
C            0.11825975587521        1.24389488805849        2.60724652120061
H           -0.64469619410276        1.22863594449680        0.99387753883906
H           -1.94663193236875        0.46888375004124        0.07282879235055
H           -0.36007367767686       -0.23412849430521       -1.69254651098777
H            1.88477608805385       -0.49156952681583       -1.29159551215382
H            3.23098005307390        0.34608249355138        0.44645351737295
H            2.23733494714170        1.86155060816553        0.53992839451724
H            2.07013062370566        0.54859726973984        2.41763146249063
H            1.85612012117895        2.37433386427341        2.44399541385217
H           -0.54095058417556        2.04342560890249        2.80322129611002
H           -0.42043050748802        0.35734785358167        2.52083579833125
16
 energy: 29.869477687208 xtb: 6.7.1 (edcfbbe)
C           -0.91724307809182        0.63763572363902        0.06855494913947
C           -0.00504598853218        0.33073441700844       -0.85014391094112
C            1.43975879776435        0.29657470348400       -0.71167761819291
C            2.31744161800655        0.82798238809266        0.21998375991949
C            1.42888522510119        1.41769816850494        2.52267332552841
C            0.12734827528566        1.24747811155638        2.66355017910709
H           -0.67125494246845        1.09335419716653        0.99976133451729
H           -1.95956423350163        0.42934440511351       -0.00250909347544
H           -0.34950087778404       -0.13132244184962       -1.74604170012096
H            1.87237602867250       -0.43420629142165       -1.36988590306254
H            3.22003694386962        0.29723020181222        0.42111160569249
H            2.27039094787233        1.83297126031255        0.56902315262257
H            2.09321572531203        0.58636317650609        2.45809646907621
H            1.84392735743161        2.41144478805735        2.48163775206528
H           -0.55721186010410        2.02850932385113        2.87187248599645
H           -0.39356102989041        0.34268518216543        2.60399198747072
16
 energy: 26.718360829941 xtb: 6.7.1 (edcfbbe)
C           -0.92721244707145        0.59060442862030        0.06521163920402
C           -0.00301452128374        0.37021627747698       -0.89351829020268
C            1.44288112194384        0.32880194719738       -0.72975199160553
C            2.32033514264896        0.81229923985895        0.16245435251150
C            1.42649156185751        1.44756584925928        2.56804010167767
C            0.13109242108454        1.25194433294566        2.71727232062542
H           -0.69039980081316        0.96305677088233        1.05096733803939
H           -1.97076961478452        0.40336182546342       -0.08208404172430
H           -0.33904873496912       -0.02685978353079       -1.84181619759156
H            1.86987866738794       -0.38175432379574       -1.42339345726120
H            3.20776662929920        0.23739558133246        0.38997061735712
H            2.30258721787924        1.80647443187374        0.57857329434984
H            2.10823918869718        0.62432302034810        2.50766764321831
H            1.82709560262225        2.44629749878905        2.52080520178723
H           -0.57617562017926        2.01229683626917        2.92185725753041
H           -0.36974790537634        0.32845338100869        2.68774298742691
16
 energy: 23.227966683409 xtb: 6.7.1 (edcfbbe)
C           -0.91119950439222        0.57003145592436        0.05845836677181
C            0.00406245755944        0.37776107424418       -0.89431922849655
C            1.45034035263719        0.32417454048676       -0.73150820794126
C            2.31419986866620        0.82003159211769        0.08547769067071
C            1.41391735286197        1.46797875304052        2.60156128494188
C            0.12814187706549        1.25722466233947        2.74910271303879
H           -0.66950885527677        0.87067984183512        1.01474082890863
H           -1.96407329851379        0.45943386475711       -0.15637204632551
H           -0.34194282496033        0.02128936273416       -1.81006800001828
H            1.86747735132871       -0.39371518962049       -1.41095442327546
H            3.21075899617227        0.26519757248472        0.29065397031492
H            2.26698208807998        1.77442990778865        0.60713427843545
H            2.11213580387895        0.64543396979902        2.56110924614239
H            1.81730030734497        2.46068945954230        2.54344030026652
H           -0.60268515181587        2.00352071830921        2.89259148812735
H           -0.33590791169328        0.29031572821622        2.79895051378123
16
 energy: 19.921297672591 xtb: 6.7.1 (edcfbbe)
C           -0.90335729587435        0.53858163870325        0.05233625975463
C            0.00768900213192        0.39363670685827       -0.88725210626924
C            1.45148910088473        0.32786615912390       -0.74875752486512
C            2.31641430014017        0.82044675831199        0.10460134625339
C            1.40865710240406        1.48739528439301        2.62639671812501
C            0.12871044249129        1.26408256801664        2.77175477187143
H           -0.66697791877259        0.76014873099191        1.06815211874136
H           -1.95922504226928        0.48427564838902       -0.18234420624777
H           -0.35156239964747        0.08846950246269       -1.93563575328338
H            1.86176349420010       -0.38933351567251       -1.45287733498248
H            3.22048391421202        0.27788094283068        0.24295697301885
H            2.24510113452154        1.73859625376441        0.64041686131865
H            2.11659769433303        0.67043557413190        2.59951657247631
H            1.80970709338773        2.47847504839415        2.55434204943771
H           -0.61976988122259        1.99931497109923        2.87695940053225
H           -0.30572183197740        0.27420504220042        2.86943262946105
16
 energy: 19.192785704559 xtb: 6.7.1 (edcfbbe)
C           -0.90755621874128        0.51416060145159        0.02883338873489
C            0.00620869314557        0.42616874940976       -0.93989216649506
C            1.44701628280369        0.34416123601689       -0.78969838845464
C            2.32457012184087        0.81136147105878        0.11101468841211
C            1.41051957318869        1.49312423286077        2.63807195267674
C            0.12648862031318        1.25781450569842        2.78412516349145
H           -0.68126983482408        0.66713109705123        1.09560674781630
H           -1.95564765220982        0.48337564855269       -0.13683047950818
H           -0.34737960658209        0.15894921447316       -1.94086668181194
H            1.85566357409807       -0.36576094268529       -1.51638508728881
H            3.23913178186721        0.25533042307592        0.25689276034868
H            2.25271242670028        1.71765255783647        0.66501581470341
H            2.11997236093984        0.68814890365007        2.63737465960286
H            1.79899096127678        2.49212547876673        2.54256125650201
H           -0.63364744858668        1.98674414992755        2.87466968623744
H           -0.29577472628732        0.28398998685423        2.88950546037536
16
 energy: 17.781021085782 xtb: 6.7.1 (edcfbbe)
C           -0.90305649470613        0.53168176206439        0.04599489593869
C            0.00664209804711        0.43491143659554       -0.91763254093883
C            1.44485965445641        0.31406459392213       -0.76729548696335
C            2.32523232139004        0.80143137766529        0.10922220497782
C            1.40961862482083        1.49230957879880        2.63543256366884
C            0.12387917780003        1.25537964131041        2.77016480760299
H           -0.67455953994500        0.54824608385317        1.10246349497206
H           -1.95694051322130        0.53637541383258       -0.13531663461721
H           -0.35404249562357        0.22376536737403       -1.92386019743603
H            1.85289959302305       -0.37796929662705       -1.50084994034813
H            3.26940617328881        0.28856372540253        0.23201300579143
H            2.23326282067252        1.71044220973582        0.66033785080876
H            2.12175536771358        0.68883342086014        2.64723023473432
H            1.79239556837124        2.49215152534256        2.52081099981402
H           -0.63994444291963        1.98701972012593        2.83506070119686
H           -0.29140900422517        0.28727075374270        2.88622281614034
16
 energy: 17.900800747927 xtb: 6.7.1 (edcfbbe)
C           -0.89625187484258        0.49774984257714        0.09400038262491
C            0.00850618461417        0.43935805631360       -0.87029688007718
C            1.44482725131573        0.26631970032397       -0.73317473987089
C            2.33345645094166        0.79648931825300        0.09795992865128
C            1.40761479122128        1.48882512309095        2.61314739210541
C            0.12123171504448        1.25117501040342        2.73623159022966
H           -0.67514345643363        0.32776511739467        1.12565110697984
H           -1.95535779571540        0.67505264787998       -0.12976240141138
H           -0.36226873753216        0.37220157734072       -1.89817846910936
H            1.84772455120512       -0.40519443637412       -1.47314843295480
H            3.31404829095529        0.34744692185131        0.20534205772051
H            2.20019542232532        1.70209568133765        0.65212898112360
H            2.12486216759573        0.68928810114389        2.67075384912012
H            1.78120877334686        2.48933438265387        2.47337216336012
H           -0.64910425134503        1.98066793623326        2.74583338134248
H           -0.28555057375415        0.29590233357577        2.89013886550816
16
 energy: 20.334427282774 xtb: 6.7.1 (edcfbbe)
C           -0.89404274324598        0.48481635749486        0.13866265450682
C            0.01208322298287        0.47610624031679       -0.82882002293025
C            1.44569540226576        0.23411554024014       -0.70422064175883
C            2.34528511782968        0.79894950552670        0.08923561795863
C            1.40652606996783        1.48390681507519        2.58238501005457
C            0.11961581866598        1.25004271178201        2.69131239693728
H           -0.70056877066135        0.09423559776053        1.15196080137912
H           -1.93553886296836        0.77474518947772       -0.09761922346173
H           -0.35900722937647        0.51803604669601       -1.86194032022652
H            1.83646517718442       -0.43717906299120       -1.44618476886123
H            3.33512536943861        0.38433104769017        0.20081905161816
H            2.19306520588553        1.70582268465375        0.63364297358587
H            2.12460291569868        0.68749076239867        2.69317255902205
H            1.77609237112842        2.48137051439385        2.41678218255750
H           -0.65593304159476        1.96854190625200        2.64381686022175
H           -0.28946711425828        0.30914545723193        2.89699364473918
16
 energy: 21.709721932013 xtb: 6.7.1 (edcfbbe)
C           -0.89338238970889        0.44447757916571        0.18313772412273
C            0.01779835004356        0.50631664483283       -0.78682803408789
C            1.44840010082237        0.22124836818531       -0.68122904965885
C            2.35702915439777        0.80640158610181        0.08628977126123
C            1.40630639950954        1.47333408419476        2.55294662849164
C            0.11786578768904        1.24885323457067        2.64267227499885
H           -0.75171392187662       -0.01650525108312        1.13740339683816
H           -1.90272945539139        0.81727155982757       -0.04069421598625
H           -0.34459337934853        0.63376049726920       -1.81242688696035
H            1.82564849077859       -0.46048536476079       -1.42225450482155
H            3.33907888793604        0.39985107222107        0.21025048226927
H            2.20724585507566        1.72077487100349        0.61004670733726
H            2.11873766810315        0.67806453843872        2.70945942976031
H            1.77880605235995        2.46417087597271        2.36386953710699
H           -0.66027866468249        1.95101475365611        2.54597851890323
H           -0.30422002676521        0.32592826440307        2.90137699576752
16
 energy: 26.915690850375 xtb: 6.7.1 (edcfbbe)
C           -0.89650309995063        0.44230870336790        0.21911544661707
C            0.02535067854231        0.53721931429849       -0.73688155837634
C            1.45126546957832        0.23191477089127       -0.65689021147392
C            2.37121016017008        0.82168922471172        0.09322799969679
C            1.40611848139106        1.46074128486520        2.51706249959400
C            0.11609197492056        1.24856845642858        2.58413610313122
H           -0.81877782692335       -0.14651247550325        1.12241551811112
H           -1.85937522390776        0.83737974080756        0.04169010230948
H           -0.32677500305639        0.71831026971894       -1.73319130909215
H            1.80917737884956       -0.47333953473091       -1.39236483163788
H            3.33139505093821        0.38745434682713        0.23753235945319
H            2.25613331235415        1.76230147290563        0.57113586569717
H            2.10659034862471        0.66861041822795        2.71487055590750
H            1.78798563790396        2.44099388181970        2.30431876741698
H           -0.66544625164577        1.92369538090404        2.43819944912541
H           -0.33444217884644        0.35314205845919        2.87562201886259
16
 energy: 34.664482575713 xtb: 6.7.1 (edcfbbe)
C           -0.90056902088998        0.38710689658536        0.26409726326164
C            0.03146668702544        0.51954230001673       -0.67365514841602
C            1.45412766417695        0.24111511872085       -0.62187728329867
C            2.38297249852094        0.83608716801062        0.11461349630075
C            1.40480619783597        1.44849124141464        2.47432516930839
C            0.11423134421087        1.24449031236156        2.52191978861617
H           -0.87934657903182       -0.27532655844140        1.10501653041645
H           -1.83498154141760        0.92565276460770        0.12264545904686
H           -0.31924112139700        0.79958636251408       -1.65685206859091
H            1.80682597526095       -0.45797972508159       -1.36750578966384
H            3.33283865837982        0.37129675413603        0.26791016495455
H            2.31862226367070        1.82231328892171        0.52267224136124
H            2.09460104647369        0.66265563164667        2.71322719806704
H            1.79469025241639        2.41930468346563        2.24189301444523
H           -0.67422909905296        1.88912070129214        2.33480750499645
H           -0.36681631723975        0.38102037382845        2.83676123453686
16
 energy: 44.681431997943 xtb: 6.7.1 (edcfbbe)
C           -0.91155688958039        0.37695833465559        0.27837651639055
C            0.03036787545544        0.50877092700110       -0.64605926416191
C            1.45580673985174        0.26650681162045       -0.60065493364209
C            2.39581716503225        0.85051617237387        0.13798224159483
C            1.40291646013283        1.43723434859251        2.43037503755733
C            0.11367357364254        1.23692465206114        2.47504164552489
H           -0.92326054072755       -0.27177710652839        1.08536694917278
H           -1.82635667957884        0.93352579028872        0.17267654081036
H           -0.32706975337997        0.77231680994005       -1.60476219337918
H            1.81738404748559       -0.41380672022061       -1.35727216871091
H            3.32601102389728        0.33118044865562        0.30274526173347
H            2.38779605619858        1.86391302081980        0.49945215218200
H            2.08738698306317        0.65676744127978        2.70729615683674
H            1.79929974514202        2.40483666773623        2.21595134606484
H           -0.67784900614248        1.86288456912925        2.29173616051827
H           -0.39036789154953        0.39772514659404        2.81174732685020
16
 energy: 51.261220381147 xtb: 6.7.1 (edcfbbe)
C           -0.92117680800083        0.38019675121401        0.30522249981601
C            0.02942357873533        0.52295563273063       -0.61551815354415
C            1.45777962899132        0.27357414481360       -0.57350549438947
C            2.41304279466141        0.86090127761951        0.15215644200232
C            1.40393092177092        1.42892523163830        2.38765624863288
C            0.11553963954595        1.23066481822484        2.42597637548868
H           -0.97076607825003       -0.37366843369097        1.09404943278382
H           -1.81667237054695        0.96393509855055        0.20915709227390
H           -0.34252835749319        0.80887860469846       -1.56901328001355
H            1.82714738623931       -0.38194028782680       -1.34316783315198
H            3.32695234390973        0.31072164843503        0.32826959130249
H            2.43909890323009        1.88061872046579        0.48763481915438
H            2.08559626303062        0.65356828795468        2.70746723089538
H            1.79877137627441        2.39642942905171        2.17317632409520
H           -0.68367806032112        1.84226539737992        2.22669527240368
H           -0.40246225283427        0.41645099273992        2.80374220759255
16
 energy: 48.027219872890 xtb: 6.7.1 (edcfbbe)
C           -0.91974840790390        0.38761385517620        0.28986431479928
C            0.02569267562102        0.51152623219541       -0.64175065048533
C            1.45706074394908        0.27692818323599       -0.58989437476838
C            2.40692492538682        0.85500825574887        0.14900953297189
C            1.40850037313884        1.43589940547086        2.42572748240554
C            0.11939836285640        1.23020542409813        2.46392075025102
H           -0.94330464885337       -0.31119774370251        1.10686744296240
H           -1.83010600347837        0.94127512013554        0.17125414372040
H           -0.35822281404172        0.76620508814710       -1.61573126767734
H            1.83851659508164       -0.37006284475111       -1.36097670981227
H            3.32098964024934        0.31170307776210        0.31691529480364
H            2.42410041989551        1.84830204414212        0.51425940828839
H            2.08882936173259        0.66027750272999        2.69081735042638
H            1.79367325000145        2.40915725138104        2.19279228652099
H           -0.68479252876586        1.84984432182846        2.27502122387142
H           -0.38751303592683        0.41179214040098        2.81190254706411
16
 energy: 51.799074057321 xtb: 6.7.1 (edcfbbe)
C           -0.92007473720476        0.38749255877264        0.28796775875670
C            0.02424404746317        0.51025691186210       -0.64849163068278
C            1.45529160732566        0.29090547629900       -0.59035299364124
C            2.40092874380875        0.85495248015113        0.16357727760354
C            1.40910100557918        1.43105615797297        2.41079548343283
C            0.12058516496709        1.22530529340144        2.45118374404697
H           -0.94282945728300       -0.28429543007285        1.10882427593503
H           -1.83315915282354        0.95742976060774        0.15891496182129
H           -0.36491069413099        0.70782821843966       -1.62100704133573
H            1.84751377797191       -0.34639219776021       -1.36658560487380
H            3.31238940786307        0.30568525254425        0.32126904005019
H            2.44209565826297        1.85419419382228        0.51815234278560
H            2.09055958492794        0.65537751360014        2.69729471193592
H            1.79115453755991        2.40633558692595        2.18970071172589
H           -0.68222241194077        1.84227530482679        2.28820843360929
H           -0.39066817340389        0.41607023260613        2.83054730417245
16
 energy: 60.615789181382 xtb: 6.7.1 (edcfbbe)
C           -0.92219786162013        0.39690921519438        0.30199938026358
C            0.02343724244543        0.50038837945874       -0.63722453054426
C            1.45394020377774        0.30903230551246       -0.58000675598085
C            2.40307418921427        0.86169600874556        0.18560497197013
C            1.41141027773661        1.42214657121681        2.38861956957249
C            0.12422180495283        1.21657785151536        2.42700994747792
H           -0.96255068362966       -0.26908633634124        1.11911736919679
H           -1.82659277252656        0.97001125234402        0.16759477937538
H           -0.38271159073453        0.65126130372110       -1.61769687805565
H            1.86025549430727       -0.30530245881414       -1.37120039973068
H            3.29958476914501        0.28421746700411        0.34653699265752
H            2.49044503223020        1.87743446964292        0.50901823009165
H            2.08906461868294        0.64856712212969        2.69592912815128
H            1.78890183633034        2.39775108395477        2.17065315410649
H           -0.68773665743325        1.81962599722646        2.26891705218753
H           -0.40254699393574        0.43324708148816        2.82512676460283
16
 energy: 76.871926530375 xtb: 6.7.1 (edcfbbe)
C           -0.92169798216600        0.42261657296544        0.32560716762634
C            0.02499311016760        0.49317835991888       -0.62455749983170
C            1.45191970680736        0.34032486285304       -0.57123353149403
C            2.40850481847542        0.88049123729201        0.21012891816849
C            1.41877409155814        1.40665048240815        2.36286211201715
C            0.13280800118339        1.20411189954247        2.39374377497697
H           -0.99501607736586       -0.25848370404476        1.14268091485030
H           -1.81348629770100        1.00958605245855        0.16920027511858
H           -0.40606669966749        0.52653047259942       -1.61685981990778
H            1.87776827823808       -0.23834903152152       -1.38339668690225
H            3.27610701519520        0.26016643858476        0.39176419021332
H            2.54919991207678        1.89930610591329        0.50193982286779
H            2.08481083519088        0.63532981679103        2.69019611520727
H            1.78891504374759        2.38133443860558        2.14144009534462
H           -0.69479029246887        1.78157779745891        2.23785616425914
H           -0.42274455432835        0.47010551217385        2.82862676282795
16
 energy: 80.312635109183 xtb: 6.7.1 (edcfbbe)
C           -0.92060201946497        0.42845854615624        0.33223689061071
C            0.02918146814458        0.49145686346408       -0.61947416039632
C            1.45071775561030        0.33916671351156       -0.57028440503595
C            2.40555375889582        0.88169969834985        0.21282860593168
C            1.42244835513820        1.40057590027733        2.35907277660388
C            0.13610289543036        1.20461586237560        2.38796138893967
H           -1.00886864691913       -0.26935462717538        1.13990022973323
H           -1.80432796888446        1.02125984041561        0.17310072264269
H           -0.39854131991445        0.51557685401231       -1.61540336545120
H            1.87621285524197       -0.23026887655743       -1.38742127236843
H            3.27263518881235        0.26892746835594        0.40302556054691
H            2.54362756280383        1.90120714025696        0.48943395158097
H            2.08229063911708        0.62838318871293        2.70192863817121
H            1.79651357916326        2.37168749216827        2.13340852266608
H           -0.69165581731277        1.77204783793496        2.21805227273810
H           -0.43128937691908        0.48903741174024        2.84163241842892
16
 energy: 87.878492165680 xtb: 6.7.1 (edcfbbe)
C           -0.91891490525334        0.43592067181355        0.34477578749148
C            0.03471494057843        0.48651985872143       -0.61267708046282
C            1.44813910282787        0.33904234571062       -0.57082974286239
C            2.39930723706447        0.88280451196046        0.22023001581492
C            1.43022805597626        1.38881559358732        2.36256155920278
C            0.14351982931174        1.20052630326144        2.38722841447775
H           -1.03339083112825       -0.28687148342643        1.12856218751540
H           -1.78717727528575        1.05542890302826        0.18427436507830
H           -0.38915811718763        0.48650478983949       -1.60947090065563
H            1.87743705414460       -0.20530028615211       -1.40213400023760
H            3.26387479385210        0.27793989250092        0.42742880579695
H            2.53786021432103        1.90976455812191        0.45911580491526
H            2.07845546287769        0.62033125690269        2.72363709460654
H            1.80901310276960        2.35366354963329        2.12022957619656
H           -0.69002424784993        1.74311258181220        2.16551553077098
H           -0.44388550807597        0.52627426668395        2.87155135769364
16
 energy: 98.884804561010 xtb: 6.7.1 (edcfbbe)
C           -0.91719352206523        0.45443138796789        0.35459148740732
C            0.03850974148928        0.47500649670819       -0.61360685419856
C            1.44460876409790        0.34795599438308       -0.57596805657761
C            2.39155670829852        0.88384430247617        0.23619176591072
C            1.43913386969655        1.37254234249515        2.35326119227000
C            0.15249466709840        1.19062057156455        2.37921577211154
H           -1.05750984951375       -0.28495644094005        1.11500550679881
H           -1.76993300559586        1.08486223124572        0.18903734932069
H           -0.39353771598545        0.43672782437962       -1.61855209978445
H            1.88764229089076       -0.15550850587743       -1.42876447520770
H            3.24966258113164        0.27684436513857        0.45901995038193
H            2.53598204759784        1.91106916165796        0.43955418643581
H            2.07783696162009        0.61326240776343        2.76046836676719
H            1.82047683229217        2.33204041079575        2.10121335114651
H           -0.68113770052734        1.69880807708688        2.11472332265237
H           -0.45859376158254        0.57692668715344        2.93460800990749
16
 energy: 118.482057758409 xtb: 6.7.1 (edcfbbe)
C           -0.91523468561683        0.47875352752530        0.37303253278928
C            0.04271224743492        0.46276171943584       -0.61482938665349
C            1.43641230112509        0.36936518393589       -0.58514701909806
C            2.37884792527457        0.88271224485539        0.26909952036671
C            1.45285430175308        1.34932664467864        2.33886672957542
C            0.16805040944612        1.16920387505161        2.37536919969818
H           -1.10095180586718       -0.29737617945962        1.08435352852701
H           -1.73989588336451        1.13614790327764        0.20778390800359
H           -0.40364613247681        0.37105888310568       -1.62070109035818
H            1.90079223021225       -0.07063633465874       -1.46697583491388
H            3.22437239657268        0.26289104806142        0.50785858506718
H            2.54734648148487        1.91639964310363        0.40567251069011
H            2.07965052038244        0.61469348070798        2.82325537215476
H            1.83358908423844        2.30017326797225        2.06764629116810
H           -0.66883915475082        1.59979081425034        2.01501899138186
H           -0.47606132690530        0.66921159215556        3.01969493694338
16
 energy: 120.866090057086 xtb: 6.7.1 (edcfbbe)
C           -0.91537875063184        0.50944757444463        0.40922697281456
C            0.05377294165984        0.43180972248251       -0.60458446078510
C            1.42178596373654        0.41044474496518       -0.58304021352938
C            2.35725399507137        0.88338258897717        0.34494167190998
C            1.47522713440882        1.31950335204354        2.28785687628066
C            0.19006468778146        1.14405307715877        2.34146272617540
H           -1.17904600253056       -0.32448638302327        1.05003333502034
H           -1.69491099883874        1.22081649701251        0.24136485484196
H           -0.41648197008581        0.23073451547023       -1.61597904819671
H            1.92540935588672        0.07289489568163       -1.51366318892182
H            3.17489696620954        0.22976062381825        0.60447424336112
H            2.60541253316263        1.94008675239865        0.34995060078396
H            2.07552548343653        0.61790305145318        2.84944763398989
H            1.85187121065968        2.26394040908245        2.03389492874557
H           -0.65418757088213        1.45053866305910        1.91338590063807
H           -0.51121607010091        0.81364722897421        3.09122594221342
16
 energy: 108.154618728357 xtb: 6.7.1 (edcfbbe)
C           -0.89053283355161        0.51648223265425        0.47608429798498
C            0.07861210215633        0.37936411693327       -0.58577956684570
C            1.39992545196545        0.45644932366847       -0.57818243018964
C            2.29834730209836        0.86150019713057        0.49412962088547
C            1.50173211681368        1.28956489174126        2.10559340511212
C            0.16309676182689        1.12724705354404        2.22777087309787
H           -1.22193427038230       -0.37183597093427        1.02891816131194
H           -1.62937842632291        1.28325669998272        0.31789284879280
H           -0.41599741399237        0.13167439583736       -1.58857377949888
H            1.93047147875942        0.19361205455389       -1.52822198335240
H            3.12028696501960        0.21064462978278        0.69849630802709
H            2.66340313277422        1.95002601186799        0.31133198245039
H            2.07787894401366        0.62372616637632        2.81625714079521
H            1.86498518886126        2.27182804832564        2.06629426459475
H           -0.65890504012562        1.36128534168144        1.90636547393280
H           -0.52199255097077        0.92965212085308        3.03162215824312
16
 energy: 101.256519096507 xtb: 6.7.1 (edcfbbe)
C           -0.84288963031999        0.51639049767103        0.56180142180888
C            0.10946294963705        0.32445349804966       -0.57718282945747
C            1.37738263440733        0.50599022176886       -0.59408042752087
C            2.22398119996443        0.87164509174108        0.65336983456838
C            1.57618198802433        1.23817337549648        1.85507793549009
C            0.11944440512158        1.10617135136146        2.12544671918713
H           -1.24196224766488       -0.39499393218629        0.98984142981696
H           -1.55531707334306        1.31344460620237        0.38515877065580
H           -0.40895510623026        0.10106628621102       -1.53241415152352
H            1.91342206239262        0.26349819934932       -1.49353777433697
H            3.06279693977408        0.20668489722456        0.74685565662283
H            2.69069949404390        1.89645021502826        0.31847854641480
H            2.09469042158341        0.61197185032944        2.75682372673787
H            1.86895975623766        2.31854814978283        2.15546287452815
H           -0.75184077878153        1.29072145140312        1.87920548183492
H           -0.47605810590329        1.04426155456574        2.96969156051498
16
 energy: 88.218821257762 xtb: 6.7.1 (edcfbbe)
C           -0.81762266438355        0.51515382169524        0.63104550704905
C            0.10575863107670        0.29821077361701       -0.55307661623743
C            1.38333690687044        0.52133430993956       -0.61459158828802
C            2.27978053575347        0.94315044237272        0.57305781375151
C            1.61262031753674        1.23665071135349        1.95918967034708
C            0.10621864344237        1.09555364785240        2.00250275321032
H           -1.28488622642368       -0.41804442489019        0.97297381809167
H           -1.51207753947603        1.35428075560376        0.42666805965826
H           -0.43356949489948        0.04682183449819       -1.46978746157494
H            1.92045545186506        0.32649247503341       -1.51883696157527
H            3.03038879448254        0.15221023980329        0.76930375105563
H            2.74994577124179        1.85349127446376        0.27737845808951
H            2.06266152156739        0.60577448634695        2.70694830625907
H            1.84748142140782        2.31832486062032        2.18427027776111
H           -0.82667890867122        1.21811509502139        1.90834874229075
H           -0.46381425244707        1.14695701066769        2.94460424545371
16
 energy: 97.209474995989 xtb: 6.7.1 (edcfbbe)
C           -0.78541553740889        0.52294045692847        0.69104513441132
C            0.09148108592975        0.30540031441743       -0.53428201504594
C            1.38889254962376        0.50201504538632       -0.57920053567005
C            2.29485574654864        0.95539185707390        0.56417170326157
C            1.62442443016472        1.26702578350729        1.97082911101604
C            0.13301426535561        1.09018467283943        1.86689612156718
H           -1.32371929641191       -0.39652428075764        0.95082083989376
H           -1.47300511299107        1.33897711138873        0.40926382669179
H           -0.45555365511345        0.01019276986135       -1.44067979415759
H            1.93850259182548        0.35958387954603       -1.50907000411655
H            3.00906595156215        0.13169314545852        0.75485530163175
H            2.81286803347505        1.80513909885806        0.23558286910347
H            2.00619558294549        0.61968986754129        2.66594325441326
H            1.80916553849481        2.31786109795579        2.19325671604787
H           -0.90645773340513        1.08590539046460        2.14047508389128
H           -0.40431553165171        1.29900110352962        2.82009116240292
16
 energy: 100.979896804159 xtb: 6.7.1 (edcfbbe)
C           -0.73785340483452        0.52990235510461        0.76030581973208
C            0.05321809431062        0.33836984527966       -0.51190642929849
C            1.40450160796586        0.46558094794193       -0.50428156408825
C            2.28954628376538        0.94267226676857        0.57224828537232
C            1.61092661127908        1.31256513399930        1.97268329848408
C            0.20971683386330        1.07487561784679        1.72689585232367
H           -1.35782522963988       -0.36406019965614        0.90478447140666
H           -1.43086257551923        1.29670259981133        0.37704916832974
H           -0.47794818883748       -0.01050147947465       -1.42089065495049
H            1.96486270265906        0.38773313660394       -1.49889762311419
H            2.97685254799972        0.13132726416834        0.72983520716923
H            2.87478582989399        1.76200429894891        0.18284616881042
H            1.92698692480648        0.63406831915891        2.65578626675599
H            1.75997941115298        2.27316329059314        2.18184326480497
H           -0.98091269999960        0.92004181830269        2.39063163712439
H           -0.32597583992247        1.52003209860198        2.68106560648010
16
 energy: 40.717219247580 xtb: 6.7.1 (edcfbbe)
C           -0.74788364850441        0.57040232421758        0.69888166529019
C            0.07326191415858        0.34275230530872       -0.53661552906179
C            1.39490751727250        0.49225470686901       -0.53682165285665
C            2.27485192396666        0.93211242341291        0.57798758261371
C            1.57869983607810        1.27660707037398        1.94090284349893
C            0.13570173879949        1.09173919344463        1.74973460227670
H           -1.33098828031747       -0.34967528784690        0.88280398191846
H           -1.48247925101183        1.32856386438577        0.37533977719069
H           -0.45707765905995       -0.01925304374096       -1.41482894121585
H            1.95578053876469        0.34256471259830       -1.48463356249110
H            2.97051454673209        0.11756600783813        0.75098315751625
H            2.86789499450758        1.77151042372488        0.21988289796726
H            1.94164792484624        0.60412850196253        2.67567494962394
H            1.76378339640156        2.29025365973225        2.17916807356924
H           -0.81125785165149        0.72730483703030        2.52047190531730
H           -0.36735873203906        1.69564561468820        2.60106702418493
16
 energy: -26.949407779332 xtb: 6.7.1 (edcfbbe)
C           -0.75518756637798        0.61201860173857        0.62010190245900
C            0.10140625404287        0.34683665424557       -0.55741360012983
C            1.38541675549738        0.51320360237177       -0.57723952666275
C            2.25695788406668        0.92338017074527        0.58644193764841
C            1.52996227294535        1.22540962711331        1.88799300217779
C            0.00365221961114        1.09605261907309        1.84261757991819
H           -1.30292713984892       -0.33217305538456        0.86711033987491
H           -1.52459109641137        1.35493217311941        0.37574349184331
H           -0.43921084738678       -0.02453017020071       -1.39778998443528
H            1.94354469490714        0.30911069010877       -1.46398475705335
H            2.96420822240950        0.10379129302089        0.76821377360432
H            2.86589067714379        1.77769840076874        0.24814523154056
H            1.95849602931888        0.58244897676766        2.70242589433158
H            1.76379577613089        2.31070935001464        2.18467251714337
H           -0.60549105733445        0.54091832554747        2.60737582124323
H           -0.38592416977082        1.87467005494942        2.50558515183877
16
 energy: -42.520625216259 xtb: 6.7.1 (edcfbbe)
C           -0.76570417909623        0.63251683533631        0.62806383488084
C            0.09372518622113        0.35680522899245       -0.55807912441313
C            1.39323327234030        0.52300176713321       -0.58152659190148
C            2.24754055603037        0.91652472617941        0.58869585071675
C            1.51256625193938        1.21784429482694        1.89567302632126
C            0.01080093187895        1.07736386508333        1.83166065893838
H           -1.30274894473013       -0.30904092454349        0.85195763135247
H           -1.54250944898352        1.37819058051064        0.37145251882922
H           -0.43790503595943       -0.01280821560559       -1.40824797198512
H            1.95479515034827        0.26450430814068       -1.47202733627321
H            2.96210156576423        0.10450877343019        0.77700246090769
H            2.84239092942921        1.78818490353617        0.28042610390941
H            1.94136231629493        0.56896792404352        2.70302127384061
H            1.74268567300160        2.30127987401557        2.18421230037997
H           -0.44604048583257        0.39087086252427        2.71233083439453
H           -0.44629482970319        2.01576251039572        2.39538330544404
16
 energy: -35.469830819743 xtb: 6.7.1 (edcfbbe)
C           -0.76990609815641        0.65129094710947        0.59404196487661
C            0.11192771124299        0.33946475485317       -0.54996530034098
C            1.40039563374894        0.50896315328293       -0.60356452501027
C            2.23063934154820        0.90996138159354        0.59395839849081
C            1.45907503969362        1.17353036989640        1.84542500291869
C           -0.13189869213079        1.04612588893163        1.98469523913997
H           -1.29757262709995       -0.28728126465065        0.85965807297510
H           -1.55139399917207        1.38231905679837        0.36868565858037
H           -0.42800306789253        0.02239862936760       -1.41098772638402
H            1.93976848254471        0.23594900299488       -1.45597086538361
H            2.98779226597009        0.12123123454149        0.78487573312047
H            2.80109017783715        1.81252432991545        0.30127510724409
H            1.94645442336599        0.55635045480481        2.71549463078458
H            1.74635948631972        2.31357697563347        2.19067221872149
H           -0.22707404128463        0.38865672740939        2.68578033335682
H           -0.45765512759170        2.03941567151737        2.29592483225213
16
 energy: -47.834523687750 xtb: 6.7.1 (edcfbbe)
C           -0.77356695961154        0.64222400579198        0.62423122982612
C            0.10381545779970        0.33743493401085       -0.53839878513584
C            1.40508787760532        0.46975656154935       -0.57029169367352
C            2.24168989440032        0.90532028046678        0.59308630650173
C            1.47316092342453        1.21717706902256        1.86403979364648
C           -0.09020000543786        1.13099174051920        1.90476157670427
H           -1.33596062625367       -0.27759091789766        0.86729957562573
H           -1.51816215048992        1.38329342886411        0.34742545881346
H           -0.43505289100332        0.04956671637949       -1.42356115396467
H            1.94657336674937        0.25062034478195       -1.45017047558722
H            2.99352888573659        0.12265532478112        0.78784894676773
H            2.80513749879606        1.79291140871650        0.28058602017760
H            1.89895790659260        0.57584401193130        2.69650150158574
H            1.75757315761768        2.30083899429352        2.19080059244003
H           -0.23136020715843        0.30378913029869        2.76640733208513
H           -0.48122321982411        2.00964428048957        2.25943254952944
16
 energy: -41.341659964991 xtb: 6.7.1 (edcfbbe)
C           -0.76251933475494        0.57644671641999        0.67640914536136
C            0.08532353736507        0.36603764530092       -0.54292341331167
C            1.39564473997009        0.49817859953167       -0.55690345702828
C            2.24801621577958        0.91561777623218        0.58773920745628
C            1.52466766654864        1.20640442279883        1.93347490926532
C            0.03789006617597        1.04277023072235        1.84244674828495
H           -1.34665073365499       -0.33377433258960        0.84008189021680
H           -1.49773673805276        1.36106078399917        0.38990066795329
H           -0.44482114678382        0.03729770685178       -1.42476820397538
H            1.95366160987939        0.28015748230427       -1.47823381533604
H            2.98544897611670        0.13275782100768        0.76280939963245
H            2.80195704219922        1.80678608633920        0.28501985495803
H            1.93782732655129        0.55543139762262        2.69751500398842
H            1.72426329447203        2.23248179050969        2.19736113338301
H           -0.36834488231082        0.40773785340057        2.77386316987228
H           -0.51462873055733        2.12908533354802        2.21620653462140
16
 energy: -55.824531706065 xtb: 6.7.1 (edcfbbe)
C           -0.76753934908000        0.61649800647890        0.64861313539836
C            0.08988868925346        0.36272896720432       -0.54423319498956
C            1.39936581131106        0.49950553400977       -0.56936781127281
C            2.24471789311779        0.91538156669173        0.59084503320358
C            1.50035921014630        1.21708030424230        1.89958029860451
C           -0.02773985565348        1.06101724605594        1.90465467289260
H           -1.32952511286689       -0.30170479795210        0.85266088315082
H           -1.51649021299786        1.37569194740021        0.37064641898951
H           -0.44379582930448        0.02109261512503       -1.41786618371238
H            1.95905942916913        0.26423411764827       -1.47195707488182
H            2.97441326973912        0.12113243869876        0.77590862418183
H            2.81913202858114        1.79367238037822        0.28131290983734
H            1.92086968302968        0.57664516573472        2.69144149502312
H            1.73039889556600        2.26672410235915        2.19389676428057
H           -0.31053534514836        0.37132231044281        2.74054675537259
H           -0.48258029591930        2.05345540948129        2.25331604926395
16
 energy: -56.474783229912 xtb: 6.7.1 (edcfbbe)
C           -0.76871503551316        0.61800088721725        0.64400812876685
C            0.10102381506933        0.31830621579736       -0.52897017207996
C            1.40436518408443        0.45835165017610       -0.55795955759498
C            2.24161271887946        0.90413519394719        0.59703803581506
C            1.49274742315063        1.20808797966840        1.88988202306124
C           -0.05674564568607        1.08908636289470        1.92093860190315
H           -1.33850402433387       -0.29516298482939        0.87656971813746
H           -1.50750640050889        1.36905922389869        0.35475196732301
H           -0.43827053212559        0.06606562897070       -1.43077674568472
H            1.93898847063294        0.28229558857082       -1.46117303990772
H            3.01141937067494        0.13830730172858        0.77472192099601
H            2.77612632153407        1.81319178147482        0.28734900597925
H            1.90596438027296        0.56890123683676        2.69475408736832
H            1.75383355383108        2.25641354596553        2.18263880870199
H           -0.28955683649408        0.38321447061391        2.72236507119047
H           -0.46678385452491        2.03622323106789        2.23386092136679
16
 energy: -57.193831403957 xtb: 6.7.1 (edcfbbe)
C           -0.76742074599065        0.62426717968621        0.64816036063841
C            0.09171971901332        0.37020003636194       -0.53983351290545
C            1.40104495669014        0.49257162440749       -0.56618696228289
C            2.24029500743659        0.91748034034171        0.59292964699580
C            1.49059004504513        1.22637140934322        1.89421094366556
C           -0.05187458008696        1.07952747637726        1.93337203120526
H           -1.32762560688667       -0.29659501383945        0.85263750401693
H           -1.51376843256694        1.37787602765003        0.37462135625008
H           -0.43916306654097        0.02959011277324       -1.41484874171374
H            1.95443265422442        0.24772046171160       -1.46366517697965
H            2.97175356296407        0.12467000432271        0.77991216049858
H            2.81759285670905        1.79261940741941        0.27854674024449
H            1.90850795599354        0.58945016372103        2.68459263044366
H            1.73161978691947        2.26078094995717        2.18737618982083
H           -0.28425666589121        0.36588444376385        2.72001989295915
H           -0.46344853808903        2.01206269000187        2.23815371248521
16
 energy: -57.235585575111 xtb: 6.7.1 (edcfbbe)
C           -0.76955180533785        0.61966755944083        0.65262786350134
C            0.09264600340401        0.34906152055378       -0.53749877781648
C            1.40510866323550        0.48867274670401       -0.56709088096438
C            2.24575577714219        0.91018430464120        0.59121820683200
C            1.49324505285459        1.22480869482878        1.89978963987148
C           -0.04164951976394        1.06417663480019        1.93095773719275
H           -1.33984164270236       -0.28866237620618        0.86420404319984
H           -1.50712933383106        1.37466929034895        0.35275168789949
H           -0.44264775988675        0.00835618319041       -1.41368648585382
H            1.95742858656939        0.31095220880694       -1.47714104576941
H            2.97482070149992        0.11565644630913        0.77652763705893
H            2.82759077090006        1.78091285026944        0.27581590572518
H            1.91017882832449        0.58590187647763        2.68171468624018
H            1.72648381987333        2.25522671492946        2.18898069502940
H           -0.29387376326347        0.36739594142538        2.74018803604695
H           -0.47856547007476        2.04749671747937        2.24063982714878
16
 energy: -57.348791013521 xtb: 6.7.1 (edcfbbe)
C           -0.76827101716756        0.61558749440292        0.65312442582777
C            0.09117772557860        0.35027894932418       -0.53795657940391
C            1.40385440069627        0.47896838788374       -0.56199417147574
C            2.24283599934926        0.91647753269794        0.59121477254522
C            1.49656750295106        1.22372044666106        1.90255325342819
C           -0.03782921766583        1.06587150150208        1.92672738069501
H           -1.33447977668897       -0.29658200473390        0.86369182685367
H           -1.50848471568204        1.37115817791054        0.36227534902014
H           -0.45008546983532        0.06036515446040       -1.43101362931466
H            1.96361634559535        0.24078460128401       -1.46457392250257
H            2.99050423837397        0.13673998175849        0.77255887708354
H            2.80025563617643        1.80591042566191        0.27818475237564
H            1.90982986264318        0.58243447530728        2.68269878788484
H            1.73325905402985        2.25130702156331        2.19105197465668
H           -0.29991444553703        0.36899606486765        2.73070871816723
H           -0.47283721387391        2.04245910344773        2.24074695950118
16
 energy: -57.276558012369 xtb: 6.7.1 (edcfbbe)
C           -0.76764846255442        0.62143448992569        0.64951669934692
C            0.09106693074204        0.36030092944964       -0.53648019082770
C            1.40041024064592        0.48480037955873       -0.56097543204132
C            2.23970720105403        0.91036400506500        0.59678582560045
C            1.49452631353041        1.22259845892011        1.89867227356047
C           -0.04809806694897        1.08831916409194        1.92592951058142
H           -1.32442556272182       -0.30123521121181        0.85726870228838
H           -1.51388261610117        1.37338667305594        0.37747891482161
H           -0.43793277724131        0.02488565792559       -1.41633878415833
H            1.94334858091544        0.27212679602790       -1.46713101100237
H            2.98149541713407        0.12501308823989        0.77740162204147
H            2.80069107877005        1.80053813401103        0.29112719636569
H            1.89809147718454        0.58238726028997        2.68820424398605
H            1.74646363653003        2.24885076810340        2.18526617094238
H           -0.28518089504253        0.37348756455749        2.71128819615137
H           -0.45863358695299        2.02721915598876        2.22198483768572
16
 energy: -57.604852393003 xtb: 6.7.1 (edcfbbe)
C           -0.77042955576776        0.61780834226970        0.65232815739552
C            0.09406691440118        0.35283277737036       -0.53390378903152
C            1.40492650824604        0.48102767148179       -0.56102491295465
C            2.24425224771816        0.91427542617149        0.59218582402838
C            1.49192697519225        1.22568393328841        1.89770151134143
C           -0.04840195149599        1.07022800234325        1.93517531932038
H           -1.34279339263566       -0.29255154807043        0.85852134019376
H           -1.50384116122782        1.37609445978161        0.36336556262458
H           -0.43941406085604        0.03738183873326       -1.41949399681893
H            1.95438458123587        0.27526251397663       -1.46704166902467
H            2.98104002029658        0.12663788779292        0.77960143711929
H            2.81645250365401        1.78972335479133        0.27107104139956
H            1.91291907004481        0.58939862295351        2.68175106986691
H            1.72535262458435        2.25405388868407        2.18408422828758
H           -0.29300013298711        0.36689573191354        2.73115319102321
H           -0.46744228145957        2.02972441051785        2.23452446057139
16
 energy: -57.547352346363 xtb: 6.7.1 (edcfbbe)
C           -0.76692403413239        0.61992854339686        0.65309753199294
C            0.09025663352481        0.35294774924963       -0.53879614101796
C            1.40326439145167        0.48820204218201       -0.56639530885107
C            2.24131385141250        0.91517944036249        0.59158144655856
C            1.49579466452022        1.22328983245311        1.90475323110196
C           -0.04076126183231        1.07573980831131        1.92900845627883
H           -1.32694432748284       -0.29484919673249        0.87019313267546
H           -1.51047050502895        1.36784272011462        0.35617082036344
H           -0.44892052384918        0.02938443152828       -1.42131060143357
H            1.96175516584794        0.26685812860204       -1.47181663496039
H            2.98167728393643        0.12865909188657        0.76722280323711
H            2.80756715007854        1.80087950483316        0.28470778787099
H            1.90047671811048        0.57730047454833        2.68187772929116
H            1.73842874932671        2.24580100618531        2.19781382711450
H           -0.29618345228100        0.37320950746533        2.72802619387458
H           -0.47033159465932        2.04410422961275        2.23386450124567
16
 energy: -57.626573932543 xtb: 6.7.1 (edcfbbe)
C           -0.76826072257789        0.61718166464981        0.65248894162090
C            0.09074952167860        0.35595307131991       -0.53736451664457
C            1.40296756013381        0.48084061010341       -0.56151357975590
C            2.24237614948992        0.90984953645149        0.59431209890853
C            1.49529747082514        1.22645810581007        1.90062559153351
C           -0.04229343892757        1.07276783213527        1.92938130354244
H           -1.33138164709360       -0.29851125674904        0.85862131642592
H           -1.51038834235008        1.37249906408228        0.37031530086656
H           -0.44512680888126        0.04044529800378       -1.42344567880295
H            1.95415010141268        0.27131010661327       -1.46864552024146
H            2.98307909997448        0.12482783032754        0.77899040862313
H            2.80735847534429        1.79443876914923        0.28311819776313
H            1.90641343498628        0.58960722609647        2.68574141029356
H            1.73514910102335        2.25279545868874        2.18229654999925
H           -0.29320681360734        0.36835720938738        2.72471920929421
H           -0.46688423248752        2.03565678792969        2.23035774191597
16
 energy: -57.575762547866 xtb: 6.7.1 (edcfbbe)
C           -0.77204221310906        0.62196206041156        0.65139971235794
C            0.09437599413893        0.35067938992652       -0.53168600285737
C            1.40433958070154        0.48166498182988       -0.55870458450444
C            2.24386437475232        0.92044381059320        0.59133238692495
C            1.49274101212683        1.22104461113894        1.89931697508804
C           -0.04856608484030        1.07415184257832        1.93343839288736
H           -1.34813313097792       -0.28641647360285        0.85686869488264
H           -1.50120078198458        1.38298488428075        0.36241413226169
H           -0.43469471372799        0.02270915816042       -1.41478438140314
H            1.95156221989647        0.26614409130404       -1.46492360315249
H            2.98630362679893        0.13709852346335        0.77497628270891
H            2.80830863962003        1.80193223168881        0.27056491158448
H            1.90970106313499        0.57806090976516        2.67792413124929
H            1.72985045557383        2.24619049536576        2.19276690232483
H           -0.29278608701786        0.36868412728753        2.72706640981927
H           -0.46362504614287        2.02714266980795        2.23202841517029
16
 energy: -57.628453129142 xtb: 6.7.1 (edcfbbe)
C           -0.76865311606151        0.61691203611026        0.65312886691671
C            0.09273848387987        0.35442233152469       -0.53509855162298
C            1.40382524406849        0.48516601037603       -0.56263612754040
C            2.24294914225059        0.91421097221792        0.59257965494581
C            1.49294551353987        1.22519664770529        1.90001905022345
C           -0.04709772895404        1.07642358863064        1.93261837128108
H           -1.33286983735502       -0.29791369341709        0.86485397709651
H           -1.50811613088975        1.36847999165481        0.36204027230633
H           -0.44203810000529        0.03941923901210       -1.42111793068065
H            1.95510673539488        0.27165049983574       -1.46849825078953
H            2.97914628277012        0.12524581519629        0.77478785221540
H            2.81422927321328        1.79289762822223        0.27732394721325
H            1.90534121940883        0.58471039238299        2.68223261007058
H            1.73226740702304        2.25074070499303        2.18912239690204
H           -0.29301184824261        0.37132138665280        2.72771727245814
H           -0.46676363109741        2.03559376290158        2.23092536434650
16
 energy: -57.573192515668 xtb: 6.7.1 (edcfbbe)
C           -0.76758850396294        0.62046347190444        0.65162773477679
C            0.08935147358526        0.35460491151949       -0.53959351069101
C            1.40292973320644        0.47851912194963       -0.56278585774606
C            2.24068267648129        0.90893016543193        0.59425770730480
C            1.49731995363345        1.22569710154070        1.90344582953615
C           -0.03818228532922        1.06946826082302        1.92879040730705
H           -1.33342172774472       -0.29224114043499        0.85641276007389
H           -1.50761443003299        1.37921962924222        0.36920314662915
H           -0.44901056694032        0.03085296804916       -1.42235400543033
H            1.95765461149294        0.26991981308703       -1.47014514544735
H            2.98693277467727        0.12824310710083        0.77688328404325
H            2.79930490359883        1.79941814058427        0.28698708440773
H            1.90833892538068        0.58953642563576        2.68737365868582
H            1.73579324284940        2.25118663700820        2.18281353995639
H           -0.29508848738167        0.36602381372244        2.72446804384561
H           -0.46740338457042        2.03463488683519        2.23261409809037
16
 energy: -57.638409062526 xtb: 6.7.1 (edcfbbe)
C           -0.76934948656582        0.61831592341952        0.65265786773101
C            0.09179201358595        0.35445554217116       -0.53566986892324
C            1.40361338565465        0.48269368203687       -0.56135892669342
C            2.24322479543074        0.91371998504327        0.59291174244196
C            1.49425945057011        1.22468977564434        1.90045712895521
C           -0.04448224781264        1.07407312114206        1.93082985413666
H           -1.33464466987417       -0.29578301342213        0.86086676843820
H           -1.50908644840199        1.37290866483210        0.36597535690722
H           -0.44267521429860        0.03550427804325       -1.42090028108839
H            1.95470003977761        0.27020954318496       -1.46803517573752
H            2.98325252547919        0.12818840027296        0.77652448265441
H            2.81003931475802        1.79610689403746        0.27909446472746
H            1.90575677210147        0.58440442416420        2.68209482371613
H            1.73398878400255        2.24983980888977        2.18753469242600
H           -0.29366537944245        0.36971483657404        2.72631435401738
H           -0.46672472602130        2.03543544796551        2.23070149163319
16
 energy: -57.630140821911 xtb: 6.7.1 (edcfbbe)
C           -0.76721017298390        0.61807095408931        0.65237466717415
C            0.09227386153156        0.35307422363430       -0.53652515056463
C            1.40324356171443        0.48331483333224       -0.56354386722437
C            2.24041077596527        0.91282565168414        0.59317103317813
C            1.49422005349691        1.22561216587721        1.90227884983042
C           -0.04472657305381        1.07444932636170        1.93305184415944
H           -1.33468389925439       -0.29448110131999        0.86217486280026
H           -1.50267403541054        1.37333768333689        0.36083876897303
H           -0.44330342015313        0.03556201340059       -1.42141461460549
H            1.95517793689029        0.27081447079738       -1.46972406527870
H            2.97884976858685        0.12535556642573        0.77342462842714
H            2.80736042189523        1.79515477472513        0.27979406089262
H            1.90810754509971        0.58773075592043        2.68612435320706
H            1.73143099881161        2.25171942120102        2.18823632744600
H           -0.29285101100003        0.36918556090476        2.72722430196845
H           -0.46562690319276        2.03275101362846        2.23251277495869
16
 energy: -57.637936557801 xtb: 6.7.1 (edcfbbe)
C           -0.76836710583183        0.61832927386678        0.65252116188181
C            0.09199137656620        0.35395984094778       -0.53613920710992
C            1.40356763832723        0.48294552728311       -0.56253752146090
C            2.24197139449932        0.91303902854479        0.59303669143903
C            1.49419752233771        1.22509884995385        1.90122852758665
C           -0.04467956074527        1.07427037084090        1.93195498340854
H           -1.33463439001816       -0.29498912746300        0.86179779434139
H           -1.50622536690000        1.37314673500801        0.36354261469695
H           -0.44342701567589        0.03548675717602       -1.42091829606758
H            1.95557016053007        0.27066458816994       -1.46881508919640
H            2.98152496530430        0.12675042087140        0.77486384532193
H            2.80874111266695        1.79558957551988        0.27970789730242
H            1.90704391271334        0.58613874018503        2.68396955402225
H            1.73261822493153        2.25071810983429        2.18749673806512
H           -0.29351982317125        0.36938071519109        2.72670241622469
H           -0.46637413659093        2.03394790806945        2.23158666488626
16
 energy: -57.638333136547 xtb: 6.7.1 (edcfbbe)
C           -0.76875279185874        0.61821533009987        0.65256327736762
C            0.09177106332322        0.35396390482266       -0.53601782566342
C            1.40335791879518        0.48250099598903       -0.56172595609759
C            2.24234400939514        0.91374224720883        0.59296678565587
C            1.49443711877161        1.22500117376373        1.90115482148451
C           -0.04413728737222        1.07407110922222        1.93118824373328
H           -1.33429376410028       -0.29574195017300        0.86049813728680
H           -1.50769746757278        1.37300084256643        0.36498476443337
H           -0.44264767562242        0.03547454042056       -1.42151373017864
H            1.95407527042879        0.27026471323455       -1.46864503918686
H            2.98189475490276        0.12789928185254        0.77664253400399
H            2.80924595733202        1.79594117190828        0.27892596196433
H            1.90601976561445        0.58497264742188        2.68303882874075
H            1.73379706727253        2.25020654926365        2.18824098420524
H           -0.29322470434030        0.36973210362998        2.72660578272357
H           -0.46619032602566        2.03523265276808        2.23109120486943
16
 energy: -57.638364503534 xtb: 6.7.1 (edcfbbe)
C           -0.76934394246023        0.61832305485399        0.65275457138518
C            0.09193804187669        0.35472546032992       -0.53557285944165
C            1.40384203998995        0.48328624750396       -0.56171834108298
C            2.24343210982933        0.91304273929567        0.59299791362147
C            1.49405887498160        1.22466333796206        1.90026596372220
C           -0.04488791365924        1.07408525522188        1.93123419647685
H           -1.33528490208850       -0.29519645615945        0.86203310005712
H           -1.50849865152436        1.37305122484974        0.36552235152302
H           -0.44311273043698        0.03547080346574       -1.42024323552819
H            1.95598873376582        0.27042185892832       -1.46787214531557
H            2.98375051806170        0.12724180026093        0.77459108570301
H            2.80997294580332        1.79607740163046        0.28018250017101
H            1.90628051505408        0.58526410144547        2.68257715050152
H            1.73330203108667        2.25009691371087        2.18633704439277
H           -0.29421001438660        0.36928158451342        2.72617878096720
H           -0.46722874694994        2.03464198618634        2.23073069818929
16
 energy: -57.638907090956 xtb: 6.7.1 (edcfbbe)
C           -0.76877663219475        0.61850302625694        0.65250965950787
C            0.09183601020007        0.35423397857276       -0.53606189535131
C            1.40368194724125        0.48250772721265       -0.56213673833319
C            2.24239212921062        0.91327772853780        0.59294654833731
C            1.49421456672061        1.22490016112803        1.90087240393934
C           -0.04458525415280        1.07427265428128        1.93147169075502
H           -1.33427813727617       -0.29532569587745        0.86141812383758
H           -1.50771482205696        1.37302868005181        0.36451914514432
H           -0.44365487760127        0.03551116559929       -1.42078950434388
H            1.95568884434664        0.27068640459792       -1.46850198806810
H            2.98230461331408        0.12758646335187        0.77622812794410
H            2.80913544315176        1.79567412714972        0.27922919731529
H            1.90667098618472        0.58524678306225        2.68288156616421
H            1.73310907200720        2.25023369537180        2.18762058079638
H           -0.29361078116777        0.36963359701901        2.72654568578961
H           -0.46641419898393        2.03450681768362        2.23124617190769
