16
 energy: 0.000000000000 xtb: 6.7.1 (edcfbbe)
C           -0.77705351752793        1.00256522087454       -0.37427002532244
C            0.00803256051082       -0.06812763020261       -0.41521315202478
C            1.46197089078879       -0.06812563546371       -0.41521213810905
C            2.24705421847920        1.00256920102103       -0.37426768257395
C            1.39307053609840        1.26847985834664        2.85079323500358
C            0.07692556107576        1.26848860352776        2.85080215394506
H           -0.38376938117960        2.00369787840197       -0.34107366487375
H           -1.85021715440487        0.91469745041048       -0.37351696337754
H           -0.44762216416769       -1.05037105631251       -0.44792891905660
H            1.91762834100932       -1.05036777350513       -0.44792782373684
H            3.32021800960545        0.91470429736301       -0.37351366821199
H            1.85376749259019        2.00370066935867       -0.34107225712324
H            1.96396403919768        0.35981620954456        2.94334094739326
H            1.96586714580948        2.17645127180398        2.75784376949569
H           -0.49586093935908        2.17646640622371        2.75785862494686
H           -0.49397782064256        0.35983111660682        2.94335511431159
16
 energy: 0.444016228703 xtb: 6.7.1 (edcfbbe)
C           -0.78592697278073        1.00326036569035       -0.27362298401394
C            0.01046479613243       -0.03717039926819       -0.46118971560368
C            1.45859213177268       -0.03916618372389       -0.44191805812303
C            2.25429692780140        1.00984889095941       -0.30070973088006
C            1.39196971476025        1.26982278601379        2.75404305912593
C            0.07521423977962        1.25958548104622        2.72857020301314
H           -0.39518940479979        1.98825929584259       -0.12263857267102
H           -1.85592846870612        0.90074483305989       -0.27417992949023
H           -0.44339795469481       -1.00171095155325       -0.61667213013173
H            1.91185697480128       -1.01509381715184       -0.54809949386862
H            3.32321376801164        0.89867169787321       -0.27344066681292
H            1.86645653113687        2.00683530960482       -0.22031773630991
H            1.96682921657933        0.36407310928367        2.85722165659731
H            1.96096680869150        2.18171173184795        2.67912373116679
H           -0.50999785447314        2.15066897962672        2.56632421006841
H           -0.48831142415698        0.34265172498315        2.77479037323583
16
 energy: 1.339054366526 xtb: 6.7.1 (edcfbbe)
C           -0.79269127142213        0.99746055873057       -0.17530989998486
C            0.01089567119231        0.00027710022252       -0.50516061767329
C            1.45547378902438       -0.00696636437959       -0.46719551727555
C            2.25986305191767        1.01384018339758       -0.22396766274436
C            1.39405895887693        1.26893199685250        2.66165975207507
C            0.07741382543748        1.24440196848239        2.63591555639976
H           -0.40826831350713        1.95869068444235        0.08795431378013
H           -1.86106660053129        0.88533138264981       -0.17926117947529
H           -0.43752620819444       -0.93776215180743       -0.78319055108979
H            1.90558730743608       -0.97366387592105       -0.64695067773488
H            3.32478131700535        0.88153034431919       -0.17340548145220
H            1.87899782236818        2.00674104078600       -0.10121105635472
H            1.97348473215673        0.36589063239386        2.75733093165139
H            1.95549661269080        2.18710743954018        2.61014709862372
H           -0.52353113826658        2.12759489211924        2.54619761994852
H           -0.48033011760797        0.32464158588822        2.60770245823599
16
 energy: 4.242337952141 xtb: 6.7.1 (edcfbbe)
C           -0.79696149848829        0.98314618165420       -0.08295506207927
C            0.01184010657247        0.04316011608640       -0.54519399113127
C            1.45381371569114        0.02974838094770       -0.49194804759171
C            2.26366335840803        1.01492061651508       -0.14549228508258
C            1.38821246172470        1.27361775393187        2.56999220262209
C            0.07082705056324        1.21976287111954        2.54109056303174
H           -0.42276067075061        1.91472779026789        0.28120112720750
H           -1.86427715800419        0.86212746491554       -0.08547231979339
H           -0.42738346568335       -0.85855034253692       -0.94284599520093
H            1.90213842507799       -0.92309351492153       -0.74478424279099
H            3.32454065791478        0.86297575219631       -0.07338174917966
H            1.89056573313005        2.00309854534383        0.01769770301278
H            1.97683667056033        0.37496497416310        2.66226758021279
H            1.94315341522110        2.19689007129264        2.53930565002401
H           -0.60901523986659        2.04052444713183        2.49340685301934
H           -0.46728174423043        0.29606676201673        2.44625869088241
16
 energy: 8.491298097148 xtb: 6.7.1 (edcfbbe)
C           -0.80092407387723        0.96911228169580       -0.00272947472346
C            0.01025272708192        0.09468675851843       -0.58128613890536
C            1.45142263354563        0.06895824186939       -0.51860483047738
C            2.26706660689826        1.00989700406809       -0.07246601009039
C            1.39082396532916        1.27638177747453        2.48356730825900
C            0.07303398530456        1.20762967227953        2.46632443985773
H           -0.43711112754808        1.86402765587805        0.45147457817864
H           -1.86793721408227        0.84205836018041        0.00319526017105
H           -0.42086266355813       -0.76111173160445       -1.09116314755778
H            1.89573228258295       -0.86835915673230       -0.83800391599996
H            3.32322941712000        0.83604696976936        0.02553028346756
H            1.90780282498991        1.99478084668410        0.12836361726424
H            1.98069787041645        0.37887033544640        2.57891516837156
H            1.93925685442923        2.20282243395984        2.46352654041611
H           -0.65499950010727        1.98041905965726        2.40291740400396
H           -0.44772141455774        0.27800103505213        2.44028078203635
16
 energy: 15.187249596773 xtb: 6.7.1 (edcfbbe)
C           -0.80527995986469        0.94730172232130        0.07083693335068
C            0.00858904545359        0.15284129942835       -0.61544211739567
C            1.45028650756675        0.11242447028298       -0.55281673221538
C            2.26885322967002        1.00117317174954       -0.00769406297069
C            1.40377831159286        1.28300638107179        2.41509940011658
C            0.09012094447506        1.19973447164644        2.49307307176504
H           -0.45408092242202        1.80507509740834        0.59619296001586
H           -1.87161939289335        0.81218467790041        0.08885819051280
H           -0.41570762289164       -0.64906670602417       -1.21984639649523
H            1.89186928692295       -0.80500769218005       -0.92663382988635
H            3.32017167634224        0.80633601554414        0.11506894310277
H            1.92591887493587        1.98279935891730        0.22879695957386
H            1.99386309293578        0.38729530032912        2.51038468499238
H            1.93746642261520        2.21472241238460        2.38113239099922
H           -0.67698695654356        1.90970410511611        2.31697460060303
H           -0.39296061607735        0.26867593083149        2.65412282085094
16
 energy: 25.550430114859 xtb: 6.7.1 (edcfbbe)
C           -0.82275097266052        0.88963036812792        0.12178356613740
C            0.01038312555372        0.21131418418579       -0.65388389255658
C            1.45446680317893        0.16063319284811       -0.58991919349403
C            2.27133522713032        0.99261919734657        0.04747127836243
C            1.41101016216058        1.30563629768719        2.40766863778908
C            0.10574324896412        1.20383189207699        2.58312279198211
H           -0.48209907060342        1.68600794853656        0.72196508917054
H           -1.88604772276707        0.76072410005561        0.15635090946155
H           -0.40835389870336       -0.52800675087834       -1.32554081719001
H            1.88965694753079       -0.73503451140696       -1.01957492028577
H            3.31587541839445        0.77636999911605        0.20532412018807
H            1.94238764174751        1.96646914442906        0.33235105602941
H            2.00747800295351        0.40544345954070        2.45083581173649
H            1.92960752018975        2.23678137355559        2.31899961084731
H           -0.67979479643765        1.83263006351003        2.24306787199273
H           -0.33878433048342        0.27697246107621        2.85406976793251
16
 energy: 38.999125312786 xtb: 6.7.1 (edcfbbe)
C           -0.84701466807105        0.81090608538682        0.13276630942010
C            0.01363913576741        0.26753641290531       -0.70567443513612
C            1.45856542211581        0.20141280103201       -0.62439518597827
C            2.27333312242456        0.96749253174142        0.09902790924594
C            1.41458053184046        1.35069987352830        2.45721775621286
C            0.10653008911487        1.19992611635504        2.53527803315909
H           -0.50431744365766        1.53568809518529        0.79322647551535
H           -1.90612799114749        0.69802661279044        0.18342791195376
H           -0.39967245507321       -0.39029736160015       -1.44538358969540
H            1.87564025696718       -0.66690006868038       -1.12626931390940
H            3.31001841306730        0.73450718048951        0.28955805461543
H            1.96977635665413        1.93785517825788        0.42792718925486
H            2.01737814965291        0.44295976648476        2.38862639621093
H            1.89605933914562        2.29620130755320        2.31841137042499
H           -0.68636941365729        1.78055165059074        2.15738789559158
H           -0.36911662077577        0.29917774685692        2.82316310357651
16
 energy: 55.174794101968 xtb: 6.7.1 (edcfbbe)
C           -0.86624934384910        0.72521895544893        0.12273982333350
C            0.02149280490364        0.33115943521316       -0.76057981010905
C            1.46354710222698        0.21673768789200       -0.65434923272362
C            2.30075107318424        0.91983289248833        0.10105373123270
C            1.41637666732938        1.39581916719426        2.49822122619863
C            0.11452804122715        1.19410044631105        2.50521191402109
H           -0.52322042542607        1.34052560340344        0.86867052089080
H           -1.92392373230948        0.72254941352776        0.08167941438145
H           -0.38868761878346       -0.22268751403238       -1.57164008904330
H            1.85521146008948       -0.61343590503290       -1.23587555870795
H            3.31270652764414        0.65698869055224        0.35311832214978
H            2.03292230631068        1.88074743894568        0.48862782020377
H            2.03772243614660        0.49670702149645        2.40180366805807
H            1.84484290308693        2.36288061424665        2.30757076477912
H           -0.69630234110124        1.70650594678192        2.09141392758811
H           -0.40707678819192        0.37172142267909        2.90212881922903
16
 energy: 68.645550600373 xtb: 6.7.1 (edcfbbe)
C           -0.89166412595676        0.62594716395385        0.11221971505335
C            0.02894149771186        0.39724201945171       -0.79346080523482
C            1.46424538730565        0.22038790796022       -0.65307379898997
C            2.34694029990348        0.87349218763577        0.08662991138202
C            1.41507234976395        1.40827817833131        2.45580243506462
C            0.11993778240897        1.17525601020025        2.49240966040632
H           -0.55074813681645        1.08446977078081        0.95385034631340
H           -1.92849867795048        0.78030162717201       -0.01579232257816
H           -0.37014010871948       -0.01956988607890       -1.68261965976598
H            1.82956718482733       -0.56258936227901       -1.31699754980466
H            3.34204277766845        0.56571737249905        0.31839149922622
H            2.12512988618653        1.81513157988502        0.53797256714147
H            2.06792644196131        0.53834496964480        2.46494815403193
H            1.80357056212472        2.40200449178526        2.28203722842201
H           -0.71029102618962        1.62529111036226        2.03637329615544
H           -0.42090137160586        0.46285797516996        3.04497235588189
16
 energy: 79.421182938143 xtb: 6.7.1 (edcfbbe)
C           -0.90945050559967        0.53036146759385        0.11772947544750
C            0.02791761345586        0.46124351176123       -0.80119965481212
C            1.46113045915913        0.25079046838255       -0.64413490419372
C            2.37803168540271        0.85942301891688        0.09451562665685
C            1.40520398793939        1.41574882621950        2.41822976722226
C            0.10235132528765        1.18332090655922        2.41808697678395
H           -0.56315006096825        0.79204620529704        1.03822797316055
H           -1.91445469318340        0.85015569924522        0.01675481918572
H           -0.35370575557133        0.19457712626681       -1.75370027530000
H            1.80909601153489       -0.50850087473427       -1.35040016827559
H            3.35996225602384        0.47753567744259        0.25398680524800
H            2.21978601900198        1.79024852044721        0.57186776544268
H            2.07999622515137        0.58413293001478        2.55531884219677
H            1.79531574357826        2.41126335555571        2.24714233329583
H           -0.77741363409498        1.58204860099035        1.98476848169314
H           -0.45125845793367        0.59498057838832        3.08991044852297
16
 energy: 87.498922486454 xtb: 6.7.1 (edcfbbe)
C           -0.91644237369866        0.45627783369812        0.14253669493284
C            0.02246040545050        0.51158838723749       -0.78530190411373
C            1.45644165841350        0.29577219140169       -0.62102934174358
C            2.39615417825257        0.87274462409656        0.12138359457629
C            1.40330939734823        1.40322683237838        2.37223293029302
C            0.09131804131470        1.17880341927163        2.35837962371502
H           -0.58237111745621        0.54011061209812        1.10548024075024
H           -1.89336443993578        0.87924478839483        0.09020452633686
H           -0.34083256014706        0.39849817697297       -1.77992058729997
H            1.81632238902592       -0.44994515934173       -1.32716088627042
H            3.35991967066099        0.41374032166840        0.21287062655988
H            2.30556133232818        1.84190921518522        0.53255896407879
H            2.08781979261438        0.62469681827248        2.65477512473319
H            1.80577357002710        2.38427582227943        2.16861549350727
H           -0.83846979240259        1.51818073258297        1.98534572951992
H           -0.44376100098119        0.71339003305410        3.12754710085737
16
 energy: 101.262542052732 xtb: 6.7.1 (edcfbbe)
C           -0.92419852671599        0.47079460882916        0.16992610303615
C            0.02060698636663        0.54875423325650       -0.75702555355824
C            1.45280128277833        0.33084984839034       -0.61206113726691
C            2.39801936799779        0.86879547093614        0.16546405844071
C            1.41000246975169        1.40354980596997        2.29938261535493
C            0.09317549702753        1.18196939130277        2.28527341919750
H           -0.62556658358272        0.33282802604429        1.14340709211094
H           -1.87381805888217        0.95665088899819        0.10813039624263
H           -0.32907465179084        0.58756441347748       -1.77307918627401
H            1.84277715717427       -0.37203620021169       -1.34231974465035
H            3.34710597001102        0.35940031316232        0.24914773901590
H            2.39835139953891        1.86422466177019        0.52369490773189
H            2.08659274734117        0.67646301067108        2.72159795617919
H            1.80441317382911        2.38042383364126        2.09647297039732
H           -0.90321310604557        1.44073857008671        2.03111278312093
H           -0.37612515438611        0.80296956861859        3.12768189290835
16
 energy: 57.103996151908 xtb: 6.7.1 (edcfbbe)
C           -0.79338904871715        0.75548804239589        0.44638424379399
C            0.08551276888445        0.57234797175098       -0.69572833409551
C            1.40795469341503        0.41498372992915       -0.60155001969839
C            2.28535528578639        0.88360151633055        0.49949583779630
C            1.53906644042838        1.21010580237558        1.96492779536111
C           -0.00630677366328        1.15256318155599        1.92976467998685
H           -0.82186958532121       -0.06825387134872        1.04235947627149
H           -1.75366679054560        1.17991804326195        0.22580957752425
H           -0.35048693112530        0.61463245759396       -1.70142805229402
H            1.90092052744676       -0.10578296213800       -1.41870018020008
H            3.21662569577891        0.27266623760608        0.45571173326110
H            2.58435614702536        1.91150349004987        0.38392836384116
H            2.07189117892970        0.63928538171298        2.71854421946324
H            1.79380319733140        2.27698646497286        2.10943033395005
H           -0.84524810146142        0.61400262292821        2.40475156961846
H           -0.32559645984095        1.69305471823449        2.76592925459853
16
 energy: 24.387567714349 xtb: 6.7.1 (edcfbbe)
C           -0.76815860026955        0.72693159664948        0.53221199247185
C            0.08384182402692        0.54890633617170       -0.64865915473860
C            1.40585660987144        0.43744876242899       -0.59774343653892
C            2.27639485133390        0.88272553857018        0.52119445332699
C            1.56071812729441        1.18579776237740        1.92154046954662
C            0.01583364188833        1.10857423094582        1.89022171743131
H           -0.89360637010812       -0.17258722304030        1.01328698837255
H           -1.70719105450477        1.21235196499958        0.26968307992870
H           -0.35608381812402        0.70050890763002       -1.62263468921889
H            1.90740224313344       -0.03725508037791       -1.44228979918836
H            3.21026570490695        0.29402367656960        0.50310128521793
H            2.56679134948746        1.91251351911587        0.33782044214805
H            2.05217324763402        0.60439593168587        2.70660531794939
H            1.82069330967169        2.24455457516760        2.09793611204484
H           -0.78857825836903        0.61267810767596        2.48027076039685
H           -0.29333999593654        1.78558372490782        2.64544046840903
16
 energy: -3.581898904736 xtb: 6.7.1 (edcfbbe)
C           -0.74533349257048        0.66628405720111        0.58283835058211
C            0.08316891171919        0.48580706579960       -0.62778826852331
C            1.40599025447013        0.46671441223485       -0.60486602568458
C            2.28240252031490        0.89476470774056        0.52947899776122
C            1.57895369286558        1.18978247717266        1.90384489201545
C            0.04134031129861        1.10103517679475        1.87130655896633
H           -0.92471626444867       -0.26489860848194        1.02709385073648
H           -1.64524026814022        1.24061598990333        0.32521764783239
H           -0.40415149809937        0.55865055174695       -1.59697939011906
H            1.91977325001622        0.06814253246492       -1.48251471155584
H            3.18016500242956        0.26090992304862        0.56491329531328
H            2.63561971910113        1.90911063079233        0.28310772082311
H            2.03795714784100        0.61573718837870        2.74822289124454
H            1.84340999823351        2.24582826572025        2.10982672342477
H           -0.68576311873364        0.56845357721908        2.54300154383403
H           -0.31348383329514        1.85980124778659        2.54080850154178
16
 energy: -24.923685625785 xtb: 6.7.1 (edcfbbe)
C           -0.72501573301076        0.61586117316060        0.63816834004916
C            0.09502269149694        0.42105769735298       -0.59498918511508
C            1.41540180762134        0.46174688815202       -0.57792414210795
C            2.27922730371850        0.89666461109597        0.56151920783579
C            1.58371667868801        1.20996602973280        1.90354635769093
C            0.04851543531128        1.09761853720639        1.88263834263563
H           -0.97354388841002       -0.34734552570695        1.02738313602111
H           -1.58919031394320        1.25791142537604        0.37871379173957
H           -0.39955594210898        0.40557644231853       -1.57033404384952
H            1.93339222040599        0.15828147433141       -1.49384831745559
H            3.14542653470147        0.22697895491928        0.64235793265088
H            2.69618837329837        1.87782770561352        0.28103552192194
H            2.05273657018286        0.61531566436235        2.71942350441304
H            1.84013291873148        2.26489114256850        2.15385863737506
H           -0.58979197042544        0.52736383664765        2.59732810730561
H           -0.35310305596526        1.92097924234812        2.46231214622807
16
 energy: -40.231455506616 xtb: 6.7.1 (edcfbbe)
C           -0.72203934697499        0.59566202423844        0.67878967300307
C            0.09542046911271        0.36614246910387       -0.56344631741064
C            1.41285722584125        0.45760664884650       -0.54296835735801
C            2.26248859567123        0.89834516051409        0.60590138185053
C            1.56435813843027        1.24281704814079        1.93415838257169
C            0.02142382769583        1.10542635204979        1.91138918652482
H           -1.09837065230248       -0.33569795339981        1.06161006829529
H           -1.53224531669698        1.28610723655605        0.40268881102649
H           -0.40316734158226        0.24549554988756       -1.54173368695419
H            1.93284736330445        0.24534798979776       -1.48238723445182
H            3.09612983152151        0.19608707803274        0.72223275767979
H            2.76841478211750        1.81582909811967        0.26317078784863
H            2.00995990042370        0.61831023498484        2.70892268838158
H            1.78555720149528        2.28005092249852        2.18168639495641
H           -0.51486688794428        0.48774286444636        2.64389733195502
H           -0.38357009838735        1.98766828279643        2.40087583227231
16
 energy: -51.201333670334 xtb: 6.7.1 (edcfbbe)
C           -0.73939673788693        0.57957151522711        0.67090859202703
C            0.08514133579783        0.34277282022316       -0.54618052651125
C            1.39856630419265        0.49187034744317       -0.55450522888240
C            2.25377654930472        0.91620553002096        0.59823083272677
C            1.53247692139915        1.26253549986321        1.91396550029221
C           -0.01708540179699        1.10937905272911        1.91318607100713
H           -1.22037214574858       -0.34976394592383        0.99949840943284
H           -1.48179144461278        1.30556473870248        0.37762340817473
H           -0.41083481316832        0.11694035474467       -1.50546540872539
H            1.93900085139405        0.33698857470954       -1.48435350501480
H            3.03144478422775        0.16955199716341        0.75779368099545
H            2.84069318253545        1.77128964478102        0.21569665399859
H            1.93858046253098        0.62334651023673        2.68441706799302
H            1.76150902974148        2.29801800824129        2.18152174395421
H           -0.44366080698871        0.46618157618058        2.69228892442213
H           -0.44252503672654        2.04852135952285        2.28713113480832
16
 energy: -56.169901197347 xtb: 6.7.1 (edcfbbe)
C           -0.76597591525985        0.58584117497330        0.65023433715535
C            0.08837464501163        0.34162969000070       -0.54732004031141
C            1.39668174124024        0.51350921584766       -0.57558995314993
C            2.26105391422350        0.92765195509716        0.57600994155844
C            1.51589786719269        1.22061729183774        1.89596988998910
C           -0.02964460563152        1.08412557930216        1.90857959919495
H           -1.32808515210734       -0.34133139814835        0.89935061395938
H           -1.51314611702565        1.33653958684604        0.37106849963348
H           -0.45906042176373        0.01223353841635       -1.42698072315333
H            1.95249764080419        0.34754649934590       -1.49024389256576
H            2.97622956288452        0.11844916847044        0.74179316347195
H            2.86064325880973        1.78394176021288        0.25341924012057
H            1.94297646452617        0.58874632938394        2.68538982085738
H            1.73483356765110        2.24509440618821        2.19525001243171
H           -0.37028048891496        0.44017735093852        2.74150576239867
H           -0.47206928239448        2.07655486169043        2.19323396499184
16
 energy: -57.638907008407 xtb: 6.7.1 (edcfbbe)
C           -0.76877656086992        0.61850296887405        0.65250959896995
C            0.09183600167980        0.35423394570797       -0.53606184561707
C            1.40368181701177        0.48250768244700       -0.56213668617980
C            2.24239192116808        0.91327764380658        0.59294649332548
C            1.49421442809178        1.22490004748540        1.90087222758200
C           -0.04458525001631        1.07427255461343        1.93147151155877
H           -1.33427801348577       -0.29532566847800        0.86141804391774
H           -1.50771468217562        1.37302855266625        0.36451911132531
H           -0.44365483644028        0.03551116230467       -1.42078937252721
H            1.95568866290359        0.27068637948443       -1.46850185182481
H            2.98230433662464        0.12758645151477        0.77622805592794
H            2.80913518252845        1.79567396055236        0.27922917140923
H            1.90667080928940        0.58524672876478        2.68288131725436
H            1.73310891121444        2.25023348660175        2.18762037783539
H           -0.29361075392743        0.36963356272549        2.72654543282873
H           -0.46641415571139        2.03450662892807        2.23124596489924
