16
Properties=species:S:1:pos:R:3:forces:R:3:charge:R:1 energy:=T -17.815412885497=T gnorm:=T 0.000359351609=T xtb:=T 6.7.1=T (edcfbbe)=T energy=-484.9959856596288 free_energy=-484.9959856596288 dipole="6.876994538589255e-07 -0.0043463343730350355 -0.019014273185918952" pbc="F F F"
C       -0.77743145       0.85582864      -0.51860966       0.00000707      -0.00001465       0.00000126      -0.08335103
C        0.00778434      -0.21618325      -0.51189156      -0.00002216       0.00005249      -0.00000359      -0.02451931
C        1.46215721      -0.21634549      -0.51210236       0.00001076       0.00002369       0.00000215      -0.02451988
C        2.24761129       0.85549364      -0.51842410      -0.00001288      -0.00000703       0.00000094      -0.08335333
C        1.39316812       1.51456542       3.06016797       0.00006586       0.00000204      -0.00001776      -0.07839109
C        0.07669616       1.51396167       3.06023550      -0.00004972       0.00004226       0.00002436      -0.07839031
H       -0.38501912       1.85823545      -0.52438188      -0.00000894      -0.00001845       0.00000476       0.04301470
H       -1.85057312       0.76709025      -0.51819949       0.00000901       0.00000157      -0.00000115       0.03556178
H       -0.44764703      -1.19884520      -0.50436546      -0.00000456      -0.00001895      -0.00000241       0.03099971
H        1.91737021      -1.19911212      -0.50520063       0.00001932      -0.00003130       0.00000048       0.03100041
H        3.32073256       0.76651335      -0.51836953       0.00000736      -0.00000556       0.00000040       0.03556089
H        1.85542083       1.85799117      -0.52347713      -0.00001340       0.00001562      -0.00000204       0.04301649
H        1.95947935       1.10116034       2.24155319      -0.00000169       0.00000380       0.00001900       0.03945398
H        1.96479908       1.92760190       3.87563096       0.00000350      -0.00002550       0.00000727       0.03723264
H       -0.49522834       1.92646890       3.87576129       0.00000814      -0.00000058      -0.00001987       0.03723267
H       -0.48932008       1.10005388       2.24167290      -0.00001767      -0.00001945      -0.00001379       0.03945168
