16
Properties=species:S:1:pos:R:3 energy:=T -17.815412885497=T gnorm:=T 0.000359351609=T xtb:=T 6.7.1=T (edcfbbe)=T pbc="F F F"
C       -0.67306724       0.96484967       0.12130844
C        0.03938405      -0.08723692      -0.30263229
C        1.47235737      -0.06773783      -0.32436657
C        2.18616844       1.02850475      -0.06164961
C        1.36713672       1.22052554       2.36084937
C        0.03721113       1.29356314       2.24778910
H       -0.27544133       1.95897799       0.16233455
H       -1.74018736       0.88018512       0.25908994
H       -0.46482346      -1.02943054      -0.44242891
H        1.99563165      -1.00705502      -0.41282368
H        3.25424754       0.96606397       0.05663850
H        1.76569214       2.01586796      -0.04234718
H        1.86417028       0.28636985       2.55897225
H        1.97570638       2.10972496       2.36051525
H       -0.46300714       2.24589112       2.21929908
H       -0.58117919       0.43541478       2.43945175
