16
Properties=species:S:1:pos:R:3 energy:=T -17.815412885497=T gnorm:=T 0.000359351609=T xtb:=T 6.7.1=T (edcfbbe)=T pbc="F F F"
C       -0.66954677       0.96592201       0.12193334
C        0.04046328      -0.08785869      -0.29947506
C        1.47486666      -0.06935636      -0.32372710
C        2.19816220       1.02917112      -0.10203998
C        1.35520281       1.21949446       2.39430919
C        0.02993008       1.29539873       2.25352492
H       -0.26588110       1.95740678       0.17003052
H       -1.73758067       0.88573111       0.25701705
H       -0.46432479      -1.02955742      -0.43948738
H        1.99539159      -1.01121610      -0.40431912
H        3.26835446       0.96512945      -0.00385471
H        1.77682276       2.01607203      -0.07205132
H        1.85098379       0.28131797       2.57510849
H        1.96793568       2.10576139       2.39001916
H       -0.46580275       2.24985382       2.21727338
H       -0.59375181       0.43790163       2.43051583
