16
Properties=species:S:1:pos:R:3 energy:=T -17.815412885497=T gnorm:=T 0.000359351609=T xtb:=T 6.7.1=T (edcfbbe)=T pbc="F F F"
C       -0.67130700       0.96538584       0.12162089
C        0.03992366      -0.08754780      -0.30105368
C        1.47361202      -0.06854709      -0.32404684
C        2.19216532       1.02883794      -0.08184480
C        1.36116976       1.22001000       2.37757928
C        0.03357060       1.29448093       2.25065701
H       -0.27066121       1.95819239       0.16618254
H       -1.73888401       0.88295812       0.25805349
H       -0.46457412      -1.02949398      -0.44095814
H        1.99551162      -1.00913556      -0.40857140
H        3.26130100       0.96559671       0.02639189
H        1.77125745       2.01596999      -0.05719925
H        1.85757704       0.28384391       2.56704037
H        1.97182103       2.10774317       2.37526721
H       -0.46440494       2.24787247       2.21828623
H       -0.58746550       0.43665821       2.43498379
