16
Properties=species:S:1:pos:R:3 energy:=T -17.815412885497=T gnorm:=T 0.000359351609=T xtb:=T 6.7.1=T (edcfbbe)=T pbc="F F F"
C       -0.67482747       0.96431350       0.12099600
C        0.03884443      -0.08692604      -0.30421090
C        1.47110272      -0.06692856      -0.32468631
C        2.18017156       1.02817157      -0.04145443
C        1.37310367       1.22104107       2.34411947
C        0.04085165       1.29264535       2.24492119
H       -0.28022144       1.95976360       0.15848657
H       -1.74149070       0.87741213       0.26012638
H       -0.46507280      -1.02936711      -0.44389968
H        1.99575167      -1.00497448      -0.41707596
H        3.24719408       0.96653123       0.08688510
H        1.76012683       2.01576593      -0.02749511
H        1.87076353       0.28889580       2.55090413
H        1.97959174       2.11170674       2.34576330
H       -0.46160934       2.24390976       2.22031193
H       -0.57489288       0.43417136       2.44391971
