16
Properties=species:S:1:pos:R:3 energy:=T -17.815412885497=T gnorm:=T 0.000359351609=T xtb:=T 6.7.1=T (edcfbbe)=T pbc="F F F"
C       -0.67658771       0.96377732       0.12068355
C        0.03830482      -0.08661515      -0.30578951
C        1.46984807      -0.06611930      -0.32500605
C        2.17417468       1.02783838      -0.02125925
C        1.37907063       1.22155661       2.32738956
C        0.04449218       1.29172755       2.24205328
H       -0.28500155       1.96054921       0.15463858
H       -1.74279405       0.87463913       0.26116283
H       -0.46532214      -1.02930367      -0.44537045
H        1.99587170      -1.00289394      -0.42132824
H        3.24014062       0.96699849       0.11713171
H        1.75456152       2.01566390      -0.01264304
H        1.87735678       0.29142174       2.54283601
H        1.98347709       2.11368853       2.33101135
H       -0.46021153       2.24192841       2.22132478
H       -0.56860657       0.43292794       2.44838768
