16
Properties=species:S:1:pos:R:3 energy:=T -17.815412885497=T gnorm:=T 0.000359351609=T xtb:=T 6.7.1=T (edcfbbe)=T pbc="F F F"
C       -0.63591935       1.01156597       0.11113350
C        0.03387746      -0.06605456      -0.29550933
C        1.47424808      -0.13617949      -0.33308273
C        2.18358587       0.98454791      -0.07196819
C        1.39606170       1.21128444       2.37839540
C        0.03728380       1.29949338       2.18652183
H       -0.34332981       1.92779392       0.12744498
H       -1.78287566       0.87070092       0.22651304
H       -0.45078223      -1.05468285      -0.44988202
H        2.02869834      -1.01341444      -0.43591807
H        3.26198058       0.93981785       0.03923102
H        1.80230843       2.03247447      -0.04626015
H        1.88902149       0.27463687       2.55410403
H        1.97787770       2.12471040       2.32338683
H       -0.45750236       2.26471855       2.21874761
H       -0.60663647       0.46188959       2.46200052
