16
Properties=species:S:1:pos:R:3 energy:=T -17.815412885497=T gnorm:=T 0.000359351609=T xtb:=T 6.7.1=T (edcfbbe)=T pbc="F F F"
C       -0.70116268       0.97421207       0.15316642
C        0.02025424      -0.11278243      -0.33339101
C        1.46184200      -0.06494455      -0.39337176
C        2.14961132       1.00609993      -0.04821826
C        1.39523723       1.19328682       2.36796031
C        0.01824042       1.33101167       2.27170499
H       -0.28693608       1.98807355       0.13573106
H       -1.79782460       0.85790872       0.26452378
H       -0.46777002      -1.03345501      -0.45592464
H        2.02891411      -1.02595123      -0.39103471
H        3.21887650       0.99050279       0.00970119
H        1.80647357       2.01843490      -0.03719769
H        1.88324015       0.31958570       2.54818274
H        2.01044746       2.12757482       2.39120759
H       -0.49633840       2.27586654       2.25140395
H       -0.56214982       0.47090230       2.39823961
