 Entering Gaussian System
 *********************************************
 Gaussian 98:
 frequency output generated by the xtb code
 *********************************************
                         Standard orientation:
 --------------------------------------------------------------------
  Center     Atomic     Atomic              Coordinates (Angstroms)
  Number     Number      Type              X           Y           Z
 --------------------------------------------------------------------
    1          6             0       -0.700531    1.021384    0.076565
    2          6             0        0.027102   -0.062439   -0.283638
    3          6             0        1.442844   -0.062392   -0.283490
    4          6             0        2.170301    1.021457    0.076961
    5          6             0        1.410489    1.225353    2.253796
    6          6             0        0.059798    1.225497    2.254045
    7          1             0       -0.312853    2.017879   -0.026118
    8          1             0       -1.770587    0.949357    0.185284
    9          1             0       -0.466146   -1.020779   -0.380445
   10          1             0        1.936182   -1.020690   -0.380226
   11          1             0        3.240353    0.949500    0.185862
   12          1             0        1.782572    2.017940   -0.025812
   13          1             0        1.960401    0.329187    2.481728
   14          1             0        1.965303    2.146766    2.291490
   15          1             0       -0.494879    2.146991    2.291837
   16          1             0       -0.490232    0.329429    2.482097
 --------------------------------------------------------------------
     1 basis functions        1 primitive gaussians
     1 alpha electrons        1 beta electrons

 Harmonic frequencies (cm**-1), IR intensities (km*mol⁻¹),
 Raman scattering activities (A**4/amu), Raman depolarization ratios,
 reduced masses (AMU), force constants (mDyne/A) and normal coordinates:
                      1                      2                      3
                        a                      a                      a 
 Frequencies --  -393.9851               118.4748               173.2468
 Red. masses --    11.5487                 7.4169                 9.9901
 Frc consts  --     0.0000                 0.0000                 0.0000
 IR Inten    --     6.5894                 0.6598                 2.0117
 Raman Activ --     0.0000                 0.0000                 0.0000
 Depolar     --     0.0000                 0.0000                 0.0000
 Atom AN      X      Y      Z        X      Y      Z        X      Y      Z
   1   6    -0.16  -0.05  -0.45    -0.14  -0.20  -0.13     0.21   0.01   0.42
   2   6    -0.07   0.01  -0.01     0.04  -0.11  -0.00     0.11  -0.01   0.20
   3   6     0.07   0.01  -0.01     0.04   0.11   0.00     0.11   0.01  -0.20
   4   6     0.16  -0.05  -0.45    -0.14   0.20   0.13     0.21  -0.01  -0.42
   5   6    -0.08   0.05   0.48     0.11  -0.43   0.00    -0.31  -0.14   0.12
   6   6     0.08   0.05   0.48     0.11   0.43  -0.00    -0.31   0.14  -0.12
   7   1    -0.01  -0.01   0.03    -0.09  -0.04  -0.05     0.04  -0.00   0.01
   8   1    -0.04  -0.01  -0.13    -0.04  -0.11  -0.03     0.07   0.01   0.18
   9   1     0.01  -0.01   0.02     0.06  -0.06   0.01     0.03  -0.01   0.12
  10   1    -0.01  -0.01   0.02     0.06   0.06  -0.01     0.03   0.01  -0.12
  11   1     0.04  -0.01  -0.13    -0.04   0.11   0.03     0.07  -0.01  -0.17
  12   1     0.01  -0.01   0.03    -0.09   0.04   0.05     0.04   0.00  -0.01
  13   1     0.01  -0.00   0.00    -0.15  -0.24  -0.01    -0.15  -0.09  -0.02
  14   1     0.01   0.00   0.01     0.20  -0.23   0.06    -0.02  -0.08   0.01
  15   1    -0.01   0.00   0.01     0.20   0.23  -0.06    -0.02   0.08  -0.01
  16   1    -0.01  -0.00   0.00    -0.15   0.24   0.01    -0.15   0.09   0.02
                      4                      5                      6
                        a                      a                      a 
 Frequencies --   253.5781               357.4517               366.6765
 Red. masses --     9.1375                 8.1837                 8.6118
 Frc consts  --     0.0000                 0.0000                 0.0000
 IR Inten    --     1.0836                 3.8201                 0.1027
 Raman Activ --     0.0000                 0.0000                 0.0000
 Depolar     --     0.0000                 0.0000                 0.0000
 Atom AN      X      Y      Z        X      Y      Z        X      Y      Z
   1   6     0.02   0.24  -0.22    -0.06   0.03  -0.10     0.51   0.12  -0.05
   2   6     0.00   0.02   0.41    -0.08  -0.08   0.21     0.01  -0.21  -0.09
   3   6    -0.00   0.02   0.41    -0.08   0.08  -0.21    -0.01  -0.20  -0.09
   4   6    -0.02   0.24  -0.22    -0.06  -0.03   0.10    -0.51   0.12  -0.05
   5   6    -0.00  -0.25  -0.17     0.14   0.09   0.48     0.00   0.03   0.15
   6   6     0.00  -0.25  -0.17     0.14  -0.09  -0.48    -0.00   0.03   0.15
   7   1     0.04   0.05  -0.14    -0.04  -0.00  -0.21     0.28  -0.02  -0.01
   8   1     0.00   0.11  -0.09    -0.01   0.01   0.08     0.13   0.21  -0.05
   9   1    -0.01  -0.00   0.26    -0.00  -0.05   0.21    -0.08  -0.01  -0.05
  10   1     0.01  -0.00   0.26    -0.01   0.05  -0.21     0.08  -0.01  -0.05
  11   1    -0.00   0.11  -0.09    -0.01  -0.01  -0.07    -0.13   0.20  -0.05
  12   1    -0.04   0.05  -0.13    -0.03   0.00   0.21    -0.28  -0.02  -0.01
  13   1    -0.00  -0.08  -0.08     0.05   0.04   0.19     0.00   0.01   0.03
  14   1     0.00  -0.08  -0.02     0.01   0.04   0.19     0.00   0.01   0.04
  15   1    -0.00  -0.08  -0.02     0.01  -0.04  -0.19    -0.00   0.01   0.04
  16   1     0.00  -0.08  -0.08     0.05  -0.04  -0.19    -0.00   0.01   0.03
                      7                      8                      9
                        a                      a                      a 
 Frequencies --   423.6468               557.7821               586.2575
 Red. masses --     8.8530                 7.2012                 1.6413
 Frc consts  --     0.0000                 0.0000                 0.0000
 IR Inten    --     0.5016                 0.4935                 0.5154
 Raman Activ --     0.0000                 0.0000                 0.0000
 Depolar     --     0.0000                 0.0000                 0.0000
 Atom AN      X      Y      Z        X      Y      Z        X      Y      Z
   1   6     0.03   0.09  -0.26    -0.17   0.15   0.02     0.02   0.04   0.00
   2   6     0.05  -0.07   0.38     0.27   0.39   0.07    -0.00   0.06  -0.07
   3   6     0.05   0.07  -0.38     0.27  -0.39  -0.07     0.00   0.06  -0.07
   4   6     0.03  -0.09   0.26    -0.17  -0.15  -0.02    -0.02   0.04   0.00
   5   6    -0.08  -0.00  -0.35     0.00   0.00   0.03    -0.00  -0.12   0.05
   6   6    -0.08   0.00   0.35     0.00  -0.00  -0.03     0.00  -0.12   0.05
   7   1     0.02   0.01  -0.19    -0.34   0.16   0.01    -0.01   0.01  -0.10
   8   1     0.02   0.04   0.00    -0.03  -0.24   0.00     0.01   0.00   0.07
   9   1     0.03  -0.05   0.29     0.01   0.13   0.06     0.01  -0.00   0.08
  10   1     0.03   0.05  -0.29     0.01  -0.13  -0.06    -0.01  -0.00   0.08
  11   1     0.02  -0.04  -0.00    -0.03   0.24  -0.00    -0.01   0.00   0.07
  12   1     0.02  -0.01   0.19    -0.34  -0.16  -0.01     0.01   0.01  -0.10
  13   1    -0.01   0.01  -0.09     0.00   0.00   0.01     0.01   0.09   0.47
  14   1    -0.04   0.01  -0.09     0.00   0.00  -0.01    -0.01  -0.01  -0.46
  15   1    -0.04  -0.01   0.09     0.00  -0.00   0.01     0.01  -0.01  -0.46
  16   1    -0.01  -0.01   0.09     0.00  -0.00  -0.01    -0.01   0.09   0.47
                     10                     11                     12
                        a                      a                      a 
 Frequencies --   646.3718               769.7532               841.8154
 Red. masses --     2.4680                 5.5357                 1.3844
 Frc consts  --     0.0000                 0.0000                 0.0000
 IR Inten    --     6.4444                 0.6345                 1.5868
 Raman Activ --     0.0000                 0.0000                 0.0000
 Depolar     --     0.0000                 0.0000                 0.0000
 Atom AN      X      Y      Z        X      Y      Z        X      Y      Z
   1   6    -0.08  -0.02   0.02    -0.08  -0.01  -0.02     0.00  -0.00  -0.00
   2   6     0.00  -0.01   0.22     0.07  -0.02   0.43    -0.00   0.00   0.01
   3   6    -0.00  -0.01   0.22     0.07   0.02  -0.43     0.00   0.00   0.01
   4   6     0.08  -0.02   0.02    -0.08   0.01   0.02    -0.00  -0.00  -0.00
   5   6     0.00  -0.02  -0.10     0.01   0.00   0.09    -0.00   0.13  -0.01
   6   6    -0.00  -0.02  -0.10     0.01  -0.00  -0.09     0.00   0.13  -0.01
   7   1     0.11  -0.03   0.31     0.11  -0.02   0.36     0.01  -0.00   0.01
   8   1    -0.07   0.09  -0.37    -0.06   0.06  -0.30     0.00  -0.00   0.01
   9   1    -0.04   0.06  -0.37    -0.02   0.05  -0.21    -0.00   0.00  -0.01
  10   1     0.04   0.06  -0.37    -0.02  -0.05   0.22     0.00   0.00  -0.01
  11   1     0.07   0.09  -0.37    -0.06  -0.06   0.30    -0.00  -0.00   0.01
  12   1    -0.11  -0.03   0.31     0.11   0.02  -0.36    -0.01  -0.00   0.01
  13   1     0.01   0.03   0.10    -0.01  -0.00   0.05    -0.43  -0.22   0.05
  14   1    -0.01   0.00  -0.13     0.00  -0.00   0.03     0.44  -0.24  -0.05
  15   1     0.01   0.00  -0.13     0.00   0.00  -0.03    -0.44  -0.24  -0.05
  16   1    -0.01   0.03   0.10    -0.01   0.00  -0.05     0.43  -0.22   0.05
                     13                     14                     15
                        a                      a                      a 
 Frequencies --   877.0881               889.9819               911.6557
 Red. masses --     2.7020                 1.9901                 3.3173
 Frc consts  --     0.0000                 0.0000                 0.0000
 IR Inten    --     1.8031                 0.2058                 1.1042
 Raman Activ --     0.0000                 0.0000                 0.0000
 Depolar     --     0.0000                 0.0000                 0.0000
 Atom AN      X      Y      Z        X      Y      Z        X      Y      Z
   1   6    -0.01   0.00   0.04    -0.07  -0.02  -0.11    -0.00  -0.03   0.27
   2   6    -0.01  -0.02  -0.02    -0.12  -0.00   0.07    -0.01   0.05  -0.10
   3   6    -0.01   0.02   0.02     0.12   0.00   0.07    -0.01  -0.05   0.10
   4   6    -0.01  -0.00  -0.04     0.07  -0.02  -0.11    -0.00   0.03  -0.27
   5   6    -0.02   0.04   0.27    -0.09  -0.00  -0.03     0.04  -0.01  -0.14
   6   6    -0.02  -0.04  -0.27     0.09  -0.00  -0.03     0.04   0.01   0.14
   7   1    -0.02  -0.00  -0.12     0.17  -0.05   0.28    -0.00  -0.03  -0.17
   8   1    -0.03   0.02  -0.26     0.03   0.14   0.47    -0.07   0.06  -0.49
   9   1     0.02  -0.02   0.07    -0.01  -0.00  -0.06     0.03  -0.03   0.22
  10   1     0.02   0.02  -0.07     0.01  -0.00  -0.06     0.03   0.03  -0.22
  11   1    -0.03  -0.03   0.26    -0.03   0.14   0.47    -0.07  -0.05   0.49
  12   1    -0.02   0.00   0.12    -0.17  -0.05   0.28    -0.00   0.03   0.17
  13   1     0.07  -0.06  -0.41     0.03  -0.01  -0.21    -0.02   0.02   0.14
  14   1     0.07  -0.02  -0.38    -0.01  -0.00  -0.24    -0.02   0.01   0.20
  15   1     0.07   0.02   0.38     0.01  -0.00  -0.24    -0.02  -0.01  -0.20
  16   1     0.07   0.06   0.42    -0.03  -0.01  -0.20    -0.02  -0.02  -0.14
                     16                     17                     18
                        a                      a                      a 
 Frequencies --   936.0990               960.8759               996.2439
 Red. masses --     4.2987                 2.7626                 2.3097
 Frc consts  --     0.0000                 0.0000                 0.0000
 IR Inten    --     0.8430                 0.4274                51.7867
 Raman Activ --     0.0000                 0.0000                 0.0000
 Depolar     --     0.0000                 0.0000                 0.0000
 Atom AN      X      Y      Z        X      Y      Z        X      Y      Z
   1   6    -0.21  -0.08   0.19     0.21  -0.06   0.07    -0.00  -0.00  -0.16
   2   6    -0.17   0.04  -0.18     0.08   0.09  -0.08    -0.02  -0.01  -0.07
   3   6     0.17   0.04  -0.18    -0.08   0.09  -0.07     0.02  -0.01  -0.07
   4   6     0.21  -0.08   0.19    -0.21  -0.06   0.07     0.00  -0.00  -0.16
   5   6    -0.01   0.01  -0.00    -0.07   0.01   0.04     0.04  -0.01  -0.17
   6   6     0.01   0.01  -0.00     0.07   0.01   0.04    -0.04  -0.01  -0.17
   7   1     0.24  -0.14  -0.03    -0.09   0.06   0.30     0.04   0.02   0.40
   8   1    -0.11   0.36  -0.20     0.05  -0.22  -0.22     0.01  -0.02   0.06
   9   1     0.08  -0.09   0.27    -0.00   0.01   0.30    -0.01  -0.03   0.25
  10   1    -0.08  -0.09   0.27     0.00   0.01   0.30     0.01  -0.02   0.24
  11   1     0.11   0.36  -0.20    -0.05  -0.22  -0.22    -0.01  -0.02   0.07
  12   1    -0.24  -0.14  -0.03     0.09   0.06   0.30    -0.04   0.02   0.40
  13   1    -0.00  -0.01  -0.05     0.04  -0.02  -0.24    -0.05   0.05   0.34
  14   1     0.01  -0.00  -0.03     0.02  -0.01  -0.26    -0.03   0.02   0.31
  15   1    -0.01  -0.00  -0.02    -0.02  -0.01  -0.26     0.03   0.02   0.31
  16   1     0.00  -0.01  -0.05    -0.04  -0.02  -0.24     0.05   0.05   0.34
                     19                     20                     21
                        a                      a                      a 
 Frequencies --  1005.0489              1027.3455              1070.2185
 Red. masses --     2.0303                 1.9016                 5.2638
 Frc consts  --     0.0000                 0.0000                 0.0000
 IR Inten    --     1.2289                 0.0011                 1.7356
 Raman Activ --     0.0000                 0.0000                 0.0000
 Depolar     --     0.0000                 0.0000                 0.0000
 Atom AN      X      Y      Z        X      Y      Z        X      Y      Z
   1   6     0.05   0.04   0.08    -0.07  -0.02  -0.05    -0.32  -0.05   0.06
   2   6    -0.02  -0.06   0.16     0.04   0.08  -0.06     0.21   0.20  -0.00
   3   6    -0.02   0.06  -0.16     0.04  -0.08   0.06     0.21  -0.20   0.00
   4   6     0.05  -0.04  -0.09    -0.07   0.02   0.06    -0.32   0.05  -0.06
   5   6     0.01   0.05  -0.06     0.00   0.15   0.01    -0.00  -0.02   0.00
   6   6     0.01  -0.05   0.06     0.00  -0.15  -0.01    -0.00   0.02  -0.00
   7   1    -0.10   0.02  -0.40     0.09  -0.03   0.17     0.24  -0.15  -0.18
   8   1     0.01  -0.04  -0.02    -0.01   0.06   0.06    -0.09   0.34   0.13
   9   1    -0.05   0.06  -0.44     0.02  -0.00   0.16     0.20  -0.01  -0.09
  10   1    -0.05  -0.06   0.45     0.02   0.00  -0.16     0.20   0.01   0.09
  11   1     0.01   0.04   0.02    -0.01  -0.06  -0.06    -0.09  -0.34  -0.13
  12   1    -0.10  -0.02   0.40     0.09   0.03  -0.17     0.24   0.15   0.18
  13   1    -0.00  -0.03  -0.17    -0.05  -0.10  -0.43     0.02   0.02   0.05
  14   1     0.00   0.00   0.21     0.04  -0.00   0.43    -0.00  -0.00  -0.08
  15   1     0.00  -0.00  -0.21     0.04   0.00  -0.43    -0.00   0.00   0.08
  16   1    -0.00   0.03   0.18    -0.05   0.10   0.43     0.02  -0.02  -0.05
                     22                     23                     24
                        a                      a                      a 
 Frequencies --  1113.1856              1188.9464              1265.9820
 Red. masses --     6.1759                 4.7256                 3.0324
 Frc consts  --     0.0000                 0.0000                 0.0000
 IR Inten    --     0.0998                 0.0134                 0.4535
 Raman Activ --     0.0000                 0.0000                 0.0000
 Depolar     --     0.0000                 0.0000                 0.0000
 Atom AN      X      Y      Z        X      Y      Z        X      Y      Z
   1   6    -0.09   0.19   0.08     0.00   0.01   0.01     0.02  -0.26  -0.04
   2   6    -0.34  -0.25  -0.08     0.00  -0.01  -0.00     0.08   0.12   0.02
   3   6     0.34  -0.25  -0.08     0.00   0.01   0.00     0.08  -0.12  -0.02
   4   6     0.09   0.19   0.08     0.00  -0.01  -0.01     0.02   0.26   0.04
   5   6    -0.00  -0.00   0.01    -0.00   0.41  -0.05    -0.00   0.02   0.01
   6   6     0.00  -0.00   0.01    -0.00  -0.41   0.05    -0.00  -0.02  -0.01
   7   1    -0.19   0.12   0.03    -0.02   0.01  -0.01     0.16  -0.14  -0.09
   8   1    -0.04   0.00  -0.03    -0.00   0.02   0.00     0.01  -0.04   0.01
   9   1    -0.45   0.10   0.04     0.02  -0.01  -0.01    -0.50   0.30   0.08
  10   1     0.45   0.10   0.05     0.02   0.01   0.01    -0.50  -0.30  -0.08
  11   1     0.04   0.00  -0.03    -0.00  -0.02  -0.00     0.01   0.04  -0.01
  12   1     0.19   0.12   0.03    -0.02  -0.01   0.01     0.16   0.14   0.09
  13   1     0.00  -0.00  -0.02    -0.37  -0.09   0.13    -0.01  -0.00   0.01
  14   1     0.00  -0.00  -0.03     0.38  -0.13  -0.10     0.02  -0.01  -0.04
  15   1    -0.00  -0.00  -0.03     0.38   0.13   0.10     0.02   0.01   0.04
  16   1    -0.00  -0.00  -0.02    -0.37   0.09  -0.12    -0.01   0.00  -0.01
                     25                     26                     27
                        a                      a                      a 
 Frequencies --  1316.4569              1349.6481              1384.4089
 Red. masses --     4.2128                 4.0524                 2.5121
 Frc consts  --     0.0000                 0.0000                 0.0000
 IR Inten    --     0.1189                 0.8898                 0.7448
 Raman Activ --     0.0000                 0.0000                 0.0000
 Depolar     --     0.0000                 0.0000                 0.0000
 Atom AN      X      Y      Z        X      Y      Z        X      Y      Z
   1   6    -0.02   0.25   0.02    -0.04  -0.06  -0.04    -0.01   0.07  -0.01
   2   6    -0.10  -0.23  -0.05     0.12   0.03  -0.00    -0.16   0.19   0.04
   3   6     0.10  -0.23  -0.05    -0.12   0.03  -0.00    -0.16  -0.19  -0.04
   4   6     0.02   0.25   0.02     0.04  -0.06  -0.04    -0.01  -0.07   0.01
   5   6     0.12   0.00   0.03     0.34   0.00   0.02    -0.01   0.01   0.00
   6   6    -0.12   0.00   0.03    -0.34   0.00   0.02    -0.01  -0.01  -0.00
   7   1    -0.20   0.16   0.12     0.07  -0.04   0.01     0.37  -0.16  -0.06
   8   1    -0.02   0.06  -0.01    -0.01   0.01   0.03     0.04  -0.48  -0.02
   9   1     0.40  -0.28  -0.06    -0.14   0.09   0.04     0.17  -0.05  -0.02
  10   1    -0.40  -0.28  -0.06     0.14   0.09   0.04     0.17   0.05   0.02
  11   1     0.02   0.06  -0.01     0.01   0.01   0.03     0.04   0.48   0.02
  12   1     0.20   0.16   0.12    -0.07  -0.04   0.01     0.37   0.16   0.06
  13   1     0.11   0.04  -0.03     0.38   0.15  -0.02     0.00   0.01   0.00
  14   1     0.11  -0.04  -0.04     0.37  -0.15   0.01     0.02  -0.01  -0.01
  15   1    -0.11  -0.04  -0.04    -0.37  -0.15   0.01     0.02   0.01   0.01
  16   1    -0.11   0.04  -0.03    -0.38   0.15  -0.02     0.00  -0.01  -0.00
                     28                     29                     30
                        a                      a                      a 
 Frequencies --  1413.2332              1439.0015              1520.7238
 Red. masses --     2.1720                 4.6747                 7.7880
 Frc consts  --     0.0000                 0.0000                 0.0000
 IR Inten    --     0.3409                 1.4934                 0.8041
 Raman Activ --     0.0000                 0.0000                 0.0000
 Depolar     --     0.0000                 0.0000                 0.0000
 Atom AN      X      Y      Z        X      Y      Z        X      Y      Z
   1   6    -0.00  -0.00   0.00     0.01   0.10   0.02     0.20  -0.24  -0.02
   2   6    -0.01   0.01  -0.00    -0.38   0.08   0.04    -0.27   0.17   0.07
   3   6    -0.01  -0.01   0.00     0.38   0.08   0.04     0.27   0.17   0.07
   4   6    -0.00   0.00  -0.00    -0.01   0.10   0.02    -0.20  -0.24  -0.02
   5   6     0.23   0.01   0.02    -0.03  -0.01  -0.03    -0.31  -0.01  -0.07
   6   6     0.23  -0.01  -0.02     0.03  -0.01  -0.03     0.31  -0.01  -0.07
   7   1     0.01  -0.01  -0.02     0.31  -0.12  -0.07    -0.23   0.05  -0.03
   8   1     0.00  -0.01   0.00     0.04  -0.43  -0.04     0.03   0.18  -0.01
   9   1     0.01  -0.00  -0.00     0.09  -0.07  -0.04     0.05  -0.00  -0.04
  10   1     0.01   0.00   0.00    -0.09  -0.07  -0.04    -0.05  -0.00  -0.04
  11   1     0.00   0.01  -0.00    -0.04  -0.43  -0.04    -0.03   0.18  -0.01
  12   1     0.01   0.01   0.02    -0.31  -0.12  -0.07     0.23   0.05  -0.03
  13   1    -0.40  -0.27  -0.02     0.07   0.05   0.02     0.15   0.15   0.05
  14   1    -0.38   0.25  -0.09     0.06  -0.04   0.04     0.15  -0.14   0.09
  15   1    -0.38  -0.25   0.09    -0.06  -0.04   0.04    -0.15  -0.14   0.09
  16   1    -0.40   0.27   0.02    -0.07   0.05   0.02    -0.15   0.15   0.05
                     31                     32                     33
                        a                      a                      a 
 Frequencies --  1596.5291              1603.9078              3051.5345
 Red. masses --     9.9375                10.2087                 1.7638
 Frc consts  --     0.0000                 0.0000                 0.0000
 IR Inten    --     1.2827                 0.2316                13.9143
 Raman Activ --     0.0000                 0.0000                 0.0000
 Depolar     --     0.0000                 0.0000                 0.0000
 Atom AN      X      Y      Z        X      Y      Z        X      Y      Z
   1   6     0.16  -0.19  -0.06    -0.24   0.35   0.09    -0.01  -0.01   0.00
   2   6    -0.28   0.17   0.07     0.26  -0.38  -0.11     0.08   0.16   0.02
   3   6     0.28   0.17   0.07     0.26   0.38   0.11     0.08  -0.16  -0.02
   4   6    -0.16  -0.19  -0.06    -0.24  -0.35  -0.09    -0.01   0.01  -0.00
   5   6     0.48   0.00   0.02     0.01  -0.00  -0.01    -0.00   0.00   0.00
   6   6    -0.48   0.00   0.02     0.01   0.00   0.01    -0.00  -0.00  -0.00
   7   1    -0.12   0.01   0.00     0.16   0.01  -0.00     0.01   0.04  -0.00
   8   1     0.03   0.07  -0.00    -0.06  -0.15   0.00     0.06   0.00  -0.01
   9   1     0.04  -0.00  -0.02    -0.18   0.02   0.03    -0.31  -0.60  -0.06
  10   1    -0.03  -0.00  -0.02    -0.18  -0.02  -0.03    -0.31   0.60   0.06
  11   1    -0.03   0.07  -0.00    -0.06   0.15  -0.00     0.06  -0.00   0.01
  12   1     0.12   0.01   0.00     0.16  -0.01   0.00     0.01  -0.04   0.00
  13   1    -0.11  -0.15  -0.02    -0.00  -0.00   0.00     0.00  -0.00  -0.00
  14   1    -0.11   0.15  -0.05    -0.00   0.00   0.01    -0.00  -0.00  -0.00
  15   1     0.11   0.15  -0.05    -0.00  -0.00  -0.01    -0.00   0.00   0.00
  16   1     0.11  -0.15  -0.02    -0.00   0.00  -0.00     0.00   0.00   0.00
                     34                     35                     36
                        a                      a                      a 
 Frequencies --  3062.7575              3100.4703              3102.2392
 Red. masses --     1.8475                 1.5785                 1.6054
 Frc consts  --     0.0000                 0.0000                 0.0000
 IR Inten    --    58.1819                 8.2568                 0.2039
 Raman Activ --     0.0000                 0.0000                 0.0000
 Depolar     --     0.0000                 0.0000                 0.0000
 Atom AN      X      Y      Z        X      Y      Z        X      Y      Z
   1   6    -0.03  -0.01   0.00    -0.13   0.05   0.01     0.14  -0.05  -0.02
   2   6     0.08   0.17   0.02    -0.00  -0.02  -0.00     0.01   0.03   0.00
   3   6    -0.08   0.17   0.02    -0.00   0.02   0.00    -0.01   0.03   0.00
   4   6     0.03  -0.01   0.00    -0.14  -0.05  -0.01    -0.13  -0.04  -0.01
   5   6    -0.00  -0.00  -0.00     0.07   0.03   0.01     0.07   0.01   0.01
   6   6     0.00  -0.00  -0.00     0.07  -0.03  -0.01    -0.08   0.01   0.02
   7   1     0.01   0.04  -0.00    -0.09  -0.18   0.02     0.10   0.19  -0.02
   8   1     0.10   0.01  -0.01     0.53   0.05  -0.06    -0.56  -0.05   0.06
   9   1    -0.30  -0.59  -0.06     0.02   0.03   0.00    -0.04  -0.07  -0.01
  10   1     0.30  -0.59  -0.06     0.02  -0.04  -0.00     0.04  -0.07  -0.01
  11   1    -0.10   0.01  -0.01     0.56  -0.05   0.06     0.54  -0.05   0.06
  12   1    -0.01   0.04  -0.00    -0.10   0.19  -0.02    -0.09   0.18  -0.02
  13   1     0.00  -0.00   0.00    -0.09   0.17  -0.04    -0.10   0.18  -0.04
  14   1     0.01   0.02   0.00    -0.15  -0.26  -0.01    -0.13  -0.22  -0.01
  15   1    -0.01   0.02   0.00    -0.15   0.26   0.01     0.14  -0.24  -0.01
  16   1    -0.00  -0.00   0.00    -0.09  -0.17   0.04     0.11   0.20  -0.05
                     37                     38                     39
                        a                      a                      a 
 Frequencies --  3104.9274              3106.9427              3120.0475
 Red. masses --     1.5660                 1.5340                 2.0114
 Frc consts  --     0.0000                 0.0000                 0.0000
 IR Inten    --     0.4541                53.2831                 0.6399
 Raman Activ --     0.0000                 0.0000                 0.0000
 Depolar     --     0.0000                 0.0000                 0.0000
 Atom AN      X      Y      Z        X      Y      Z        X      Y      Z
   1   6     0.09  -0.01  -0.01    -0.09   0.02   0.01     0.01   0.02  -0.00
   2   6     0.01   0.01   0.00    -0.00  -0.01  -0.00     0.00   0.00  -0.00
   3   6    -0.01   0.01   0.00    -0.00   0.01   0.00     0.00  -0.00   0.00
   4   6    -0.09  -0.01  -0.01    -0.09  -0.02  -0.01     0.01  -0.02   0.00
   5   6    -0.13  -0.02  -0.03    -0.11  -0.05  -0.02    -0.03   0.21  -0.03
   6   6     0.13  -0.02  -0.03    -0.11   0.05   0.02    -0.03  -0.21   0.03
   7   1     0.04   0.06  -0.01    -0.04  -0.07   0.01    -0.03  -0.06   0.01
   8   1    -0.33  -0.03   0.04     0.35   0.03  -0.04    -0.01   0.00   0.00
   9   1    -0.02  -0.03  -0.00     0.01   0.02   0.00    -0.00  -0.00  -0.00
  10   1     0.02  -0.03  -0.00     0.01  -0.02  -0.00    -0.00   0.00   0.00
  11   1     0.33  -0.03   0.04     0.34  -0.03   0.04    -0.01  -0.00  -0.00
  12   1    -0.04   0.06  -0.01    -0.04   0.07  -0.01    -0.03   0.06  -0.01
  13   1     0.18  -0.33   0.08     0.14  -0.26   0.06     0.30  -0.48   0.12
  14   1     0.23   0.40   0.01     0.25   0.44   0.01    -0.19  -0.28  -0.01
  15   1    -0.22   0.39   0.01     0.25  -0.44  -0.01    -0.19   0.28   0.01
  16   1    -0.18  -0.32   0.08     0.14   0.27  -0.06     0.30   0.48  -0.12
                     40                     41                     42
                        a                      a                      a 
 Frequencies --  3136.5037              3138.9110              3144.6231
 Red. masses --     1.9907                 2.0668                 2.0624
 Frc consts  --     0.0000                 0.0000                 0.0000
 IR Inten    --    21.6050                 2.5104               114.1514
 Raman Activ --     0.0000                 0.0000                 0.0000
 Depolar     --     0.0000                 0.0000                 0.0000
 Atom AN      X      Y      Z        X      Y      Z        X      Y      Z
   1   6    -0.12  -0.17   0.02     0.08   0.12  -0.02    -0.08  -0.12   0.02
   2   6    -0.01  -0.01  -0.00     0.01   0.01   0.00    -0.01  -0.02  -0.00
   3   6    -0.01   0.02   0.00    -0.01   0.01   0.00     0.01  -0.02  -0.00
   4   6    -0.12   0.17  -0.02    -0.08   0.11  -0.01     0.08  -0.12   0.01
   5   6     0.01   0.02  -0.00     0.01  -0.16   0.02     0.00  -0.16   0.02
   6   6     0.00  -0.03   0.00    -0.01  -0.16   0.02    -0.00  -0.16   0.02
   7   1     0.23   0.58  -0.05    -0.17  -0.43   0.04     0.17   0.43  -0.04
   8   1     0.19  -0.01  -0.02    -0.13   0.00   0.01     0.13  -0.00  -0.01
   9   1     0.03   0.05   0.00    -0.02  -0.04  -0.00     0.03   0.05   0.00
  10   1     0.03  -0.05  -0.00     0.02  -0.03  -0.00    -0.03   0.05   0.00
  11   1     0.20   0.01   0.02     0.12   0.00   0.01    -0.13  -0.00  -0.01
  12   1     0.24  -0.60   0.05     0.16  -0.40   0.03    -0.17   0.42  -0.04
  13   1     0.02  -0.02   0.01    -0.20   0.32  -0.08    -0.18   0.28  -0.07
  14   1    -0.03  -0.06  -0.00     0.15   0.24   0.01     0.17   0.27   0.01
  15   1    -0.04   0.06   0.00    -0.15   0.24   0.01    -0.17   0.27   0.01
  16   1     0.02   0.04  -0.01     0.20   0.32  -0.08     0.18   0.28  -0.07
