16
 energy: -17.661583709969 xtb: 6.7.1 (edcfbbe)
C           -0.92419852671599        0.47079460882916        0.16992610303615
C            0.02060698636663        0.54875423325650       -0.75702555355824
C            1.45280128277833        0.33084984839034       -0.61206113726691
C            2.39801936799779        0.86879547093614        0.16546405844071
C            1.41000246975169        1.40354980596997        2.29938261535493
C            0.09317549702753        1.18196939130277        2.28527341919750
H           -0.62556658358272        0.33282802604429        1.14340709211094
H           -1.87381805888217        0.95665088899819        0.10813039624263
H           -0.32907465179084        0.58756441347748       -1.77307918627401
H            1.84277715717427       -0.37203620021169       -1.34231974465035
H            3.34710597001102        0.35940031316232        0.24914773901590
H            2.39835139953891        1.86422466177019        0.52369490773189
H            2.08659274734117        0.67646301067108        2.72159795617919
H            1.80441317382911        2.38042383364126        2.09647297039732
H           -0.90321310604557        1.44073857008671        2.03111278312093
H           -0.37612515438611        0.80296956861859        3.12768189290835
