16
 xtb: 6.7.1 (edcfbbe)
C           -0.74277526597798        1.00770260139712       -0.04323510552702
C            0.00977453753230       -0.05918196190068       -0.28609714808115
C            1.46015816893085       -0.05913060357391       -0.28592867570276
C            2.21256662247203        1.00778635913389       -0.04289552115420
C            1.38831711726748        1.23879246643927        2.38114604792075
C            0.08196524417948        1.23893706251434        2.38135884448193
H           -0.31560116935451        2.01416448127404       -0.01821164034804
H           -1.78232714406960        0.94624263674839        0.15108231262082
H           -0.46375412235519       -1.02448452514029       -0.37416268843258
H            1.93378487317568       -1.02439618025844       -0.37393701000636
H            3.25209413292421        0.94638764384325        0.15168525832249
H            1.78531038756643        2.01422699747840       -0.01790214844956
H            1.96198710368268        0.32880443852121        2.48191652778691
H            1.96683148676304        2.14723865220930        2.29381326787986
H           -0.49640497940441        2.14747000426425        2.29420000523833
H           -0.49182373435187        0.32905395925070        2.48231612344748
