16
Properties=species:S:1:pos:R:3 energy:=T -17.820713068479=T gnorm:=T 0.000405323679=T xtb:=T 6.7.1=T (edcfbbe)=T pbc="F F F"
C       -0.79573221       0.98950976      -0.27110357
C        0.07932454      -0.04845980      -0.24028626
C        1.57085020      -0.06145582      -0.40449576
C        2.18129268       0.94076214      -0.16923860
C        1.39935323       1.14146941       2.55107510
C       -0.00999766       1.27108194       2.52561338
H       -0.37749431       1.99988668      -0.11266472
H       -1.86966652       0.83380288      -0.11657263
H       -0.34916489      -0.92549640      -0.31717649
H        1.96297673      -1.07521963      -0.31034750
H        3.30199173       0.92478696      -0.13131423
H        1.83499349       1.97949078      -0.08698415
H        1.90318420       0.32535202       2.76389969
H        1.96277033       2.15143466       2.49552399
H       -0.45677642       2.10215184       2.45385906
H       -0.44259709       0.36165135       2.64225989
