16
Properties=species:S:1:pos:R:3 energy:=T -17.820307793211=T gnorm:=T 0.000596792534=T xtb:=T 6.7.1=T (edcfbbe)=T pbc="F F F"
C       -0.66671160       0.99390214       0.09489089
C       -0.01594328      -0.10538982      -0.37236730
C        1.35847767      -0.16122466      -0.27313055
C        2.15960455       1.12645722       0.08562960
C        1.40178944       1.26475357       2.14191372
C        0.01911513       1.30361954       2.13598235
H       -0.37700584       1.95210607      -0.07404277
H       -1.72487296       0.87972508       0.22345069
H       -0.45052777      -0.98966852      -0.45563834
H        1.97697323      -0.98991209      -0.51125474
H        3.19453637       0.96690250       0.24354832
H        1.68627005       2.00255247      -0.05372479
H        2.02728906       0.23581109       2.63317375
H        1.89820951       2.19872388       2.36852260
H       -0.43521793       2.15937227       2.25166309
H       -0.44966201       0.30781026       2.38267395
