16
Properties=species:S:1:pos:R:3 energy:=T -17.917372504997=T gnorm:=T 0.000972558229=T xtb:=T 6.7.1=T (edcfbbe)=T pbc="F F F"
C       -0.73413417       0.99558472       0.32778876
C        0.00062029      -0.11733033      -0.22332141
C        1.39375605      -0.13368362      -0.13589085
C        2.09048900       0.99656728       0.35473192
C        1.59937027       1.33335677       1.82132845
C       -0.02575541       1.33742941       1.91479547
H       -0.36578221       1.97045803      -0.22888754
H       -1.71492925       0.74800875       0.51805453
H       -0.49661484      -0.83843932      -0.56179027
H        1.85209864      -1.03707557      -0.56284139
H        3.10544403       0.77293576       0.48119860
H        1.96377534       1.88032432      -0.24832226
H        1.92754023       0.48660057       2.51553027
H        1.81357832       2.20787573       2.24909725
H       -0.52068851       2.25082914       2.25199835
H       -0.43370441       0.53357324       2.47920700
