16
Properties=species:S:1:pos:R:3 energy:=T -17.820713068479=T gnorm:=T 0.000405323679=T xtb:=T 6.7.1=T (edcfbbe)=T pbc="F F F"
C       -0.73801473       1.04580860      -0.04035582
C        0.02944720       0.01424197      -0.38452270
C        1.50716413      -0.07602710      -0.31028832
C        2.23214769       1.02782908      -0.04985069
C        1.29295458       1.25672568       2.49238487
C        0.13921185       1.23106369       2.55689532
H       -0.38167256       2.04073038      -0.02645505
H       -1.85699765       0.93133415      -0.19298889
H       -0.43638193      -0.99003471      -0.42220277
H        1.98479386      -1.15107860      -0.49343435
H        3.22883463       0.90201635      -0.11387828
H        1.82547522       2.00032926      -0.04248311
H        1.93835244       0.27694366       2.56699820
H        2.08283856       2.03557429       2.45582768
H       -0.41653316       2.19149289       2.41992787
H       -0.49422720       0.39393933       2.70180642
