16
Properties=species:S:1:pos:R:3 energy:=T -17.813369164842=T gnorm:=T 0.000460668107=T xtb:=T 6.7.1=T (edcfbbe)=T pbc="F F F"
C       -0.73880082       1.03989121       0.03521433
C        0.02342820      -0.07710469      -0.38359105
C        1.43691129      -0.18328560      -0.26375291
C        2.14788336       0.97661522       0.01979108
C        1.41872802       1.15629334       2.21534417
C        0.00765358       1.12279688       2.25831998
H       -0.23234837       1.95410002       0.02497298
H       -1.86420848       0.95990391       0.10832120
H       -0.46621037      -0.99357588      -0.28293399
H        1.94365048      -1.01798647      -0.43298323
H        3.29087894       0.92996945       0.17161885
H        1.78737774       2.10788137      -0.11982627
H        1.94630426       0.38287984       2.47694209
H        1.92338592       2.13775372       2.23321963
H       -0.49037408       2.28654650       2.37200967
H       -0.55359838       0.28645608       2.47397898
