16
Properties=species:S:1:pos:R:3 energy:=T -17.820713068479=T gnorm:=T 0.000405323679=T xtb:=T 6.7.1=T (edcfbbe)=T pbc="F F F"
C       -0.74521452       1.02233437      -0.14068741
C        0.00135018      -0.02396287      -0.29010809
C        1.47759148      -0.04376070      -0.33651393
C        2.16827368       1.03898190      -0.11532694
C        1.38133335       1.22873713       2.67189392
C        0.02842977       1.24094504       2.54811225
H       -0.43080262       2.01121291       0.02831359
H       -1.77771877       0.96751545      -0.07846961
H       -0.44628602      -0.97816943      -0.40125398
H        1.89719872      -1.03082051      -0.33595620
H        3.32547549       0.97015154      -0.23938187
H        1.90318197       2.14796089      -0.00016812
H        1.94477467       0.29423232       2.65244043
H        1.90599497       2.20951220       2.43320966
H       -0.43760403       2.24868845       2.34055352
H       -0.47634200       0.30350125       2.54868790
