16
Properties=species:S:1:pos:R:3 energy:=T -17.813369164842=T gnorm:=T 0.000460668107=T xtb:=T 6.7.1=T (edcfbbe)=T pbc="F F F"
C       -0.59281195       1.05212800       0.06861923
C       -0.06287685      -0.06580620      -0.35056026
C        1.48741930      -0.07669344      -0.28529649
C        2.17991579       0.98160968      -0.05260035
C        1.43156447       1.15795459       2.24521737
C        0.04719711       1.19414219       2.32229838
H       -0.26894979       2.02232413      -0.00345216
H       -1.79072004       0.98616108       0.02410676
H       -0.44645622      -1.07784058      -0.44850587
H        1.93005343      -1.04867119      -0.35146440
H        3.31448317       0.81606492       0.11886757
H        1.89127676       2.05540046       0.06330745
H        1.96489429       0.25457649       2.43295163
H        2.00180958       2.20045687       2.26682851
H       -0.51440020       2.16322767       2.21239673
H       -0.51449232       0.41778492       2.60987129
