16
Properties=species:S:1:pos:R:3 energy:=T -17.822956346966=T gnorm:=T 0.000685981590=T xtb:=T 6.7.1=T (edcfbbe)=T pbc="F F F"
C       -0.64883327       1.07584736      -0.31173340
C        0.01152522      -0.10443925      -0.41093864
C        1.49894202      -0.11568919      -0.34449377
C        2.18658072       0.89501237      -0.41498202
C        1.29186653       1.18414747       2.89212970
C        0.06475848       1.28083631       2.89371517
H       -0.30537479       1.97284746      -0.23536613
H       -1.82584132       0.91594743      -0.32972459
H       -0.53475079      -1.09709326      -0.44799970
H        1.95518009      -1.07192586      -0.44916017
H        3.37812799       1.00154429      -0.30997468
H        1.92896901       1.97894349      -0.33473239
H        1.98336061       0.33936016       2.87523060
H        2.06566871       2.16469292       2.68070176
H       -0.46564643       2.28849679       2.74432619
H       -0.41920650       0.33106696       2.87620024
