16
Properties=species:S:1:pos:R:3 energy:=T -17.820307793211=T gnorm:=T 0.000596792534=T xtb:=T 6.7.1=T (edcfbbe)=T pbc="F F F"
C       -0.75071843       0.95743443       0.15466824
C        0.03280258      -0.01293773      -0.32002763
C        1.48821011      -0.06593176      -0.28230043
C        2.01833762       0.95059681       0.20347844
C        1.51941104       1.23271710       2.19856855
C        0.01042471       1.19781277       2.11242347
H       -0.26170850       2.03705620      -0.10456782
H       -1.75960676       0.98026125       0.29104031
H       -0.52689108      -0.91412296      -0.40873212
H        1.94725783      -0.92852787      -0.36240047
H        3.20444124       0.97904577       0.20683839
H        1.75186883       1.87975840      -0.01665804
H        1.83547824       0.38383819       2.45550850
H        1.89402376       2.14026123       2.32442445
H       -0.44617343       2.25913927       2.32998345
H       -0.42696940       0.30652749       2.54885093
