16
Properties=species:S:1:pos:R:3 energy:=T -17.812259918842=T gnorm:=T 0.000930443810=T xtb:=T 6.7.1=T (edcfbbe)=T pbc="F F F"
C       -0.71911335       0.93894927       0.12471550
C        0.09017176       0.09360738      -0.23732340
C        1.41079321      -0.11101423      -0.47676328
C        2.13808804       1.00969904       0.12851873
C        1.44362364       1.26050395       2.27068947
C        0.09673541       1.30803331       2.19999786
H       -0.33908066       1.93977923       0.06680146
H       -1.69926487       0.98791504       0.11674301
H       -0.45562290      -1.03448489      -0.38162826
H        1.92480625      -0.99274155      -0.40794410
H        3.28822949       0.95969560       0.16680055
H        1.77759416       1.99221045       0.02230426
H        1.94541039       0.34819153       2.46352524
H        1.88303166       2.19939495       2.23406753
H       -0.45757873       2.17255486       2.20100304
H       -0.54268551       0.30348943       2.43984895
