16
Properties=species:S:1:pos:R:3 energy:=T -17.822885844677=T gnorm:=T 0.000351651283=T xtb:=T 6.7.1=T (edcfbbe)=T pbc="F F F"
C       -0.71947805       0.99687556      -0.28134626
C        0.05322471      -0.01890027      -0.32457344
C        1.43541421       0.02019801      -0.44852166
C        2.29400413       1.03316884      -0.26238550
C        1.50067414       1.34911924       2.69802197
C       -0.01980217       1.31096528       2.70547160
H       -0.37942353       2.05207043      -0.35787850
H       -1.96841883       0.93385907      -0.30853149
H       -0.46269977      -1.04472407      -0.47730499
H        1.83213083      -1.05644944      -0.48365095
H        3.22382547       0.94796121      -0.31457901
H        1.87195361       1.94750610      -0.30153604
H        1.90707670       0.30322076       2.85050161
H        1.92078216       2.19472021       2.70924166
H       -0.37975723       2.09475470       2.74059242
H       -0.49933740       0.35313308       2.75644549
