16
Properties=species:S:1:pos:R:3 energy:=T -17.820713068479=T gnorm:=T 0.000405323679=T xtb:=T 6.7.1=T (edcfbbe)=T pbc="F F F"
C       -0.83921516       0.97077744      -0.06482436
C       -0.01144091      -0.04652715      -0.19836002
C        1.55462628      -0.06891149      -0.31736515
C        2.15624557       0.96723716      -0.11551085
C        1.41853647       1.26089876       2.59128175
C        0.02891827       1.25096925       2.57552545
H       -0.32487681       2.06806506      -0.05849601
H       -1.85365801       0.95030183      -0.17487632
H       -0.55124103      -1.00237432      -0.39496713
H        1.94164912      -1.13864828      -0.41349549
H        3.26927252       0.87697295      -0.24979264
H        1.80977939       2.05769278      -0.05947196
H        1.92836027       0.34552033       2.68064720
H        1.80156933       2.15743505       2.49801476
H       -0.45587962       2.26665381       2.53342999
H       -0.47565045       0.36450804       2.68246065
