16
Properties=species:S:1:pos:R:3 energy:=T -17.820307793211=T gnorm:=T 0.000596792534=T xtb:=T 6.7.1=T (edcfbbe)=T pbc="F F F"
C       -0.64458836       1.03184862       0.21545831
C        0.10360723      -0.10033617      -0.24492439
C        1.34447599       0.04488179      -0.21586143
C        2.12780418       0.96418213       0.17970536
C        1.33143890       1.17711084       2.19392638
C        0.03924018       1.19308243       2.20510621
H       -0.37809478       2.03209657      -0.11797145
H       -1.78665831       0.97227639       0.21656329
H       -0.37134318      -1.05018555      -0.31413983
H        1.88607946      -0.98426840      -0.49067440
H        3.13553408       0.95549347       0.30899921
H        1.72007352       2.08189238      -0.13455082
H        1.95746699       0.36368543       2.53862089
H        1.85368703       2.24162576       2.33941648
H       -0.50671892       2.09539350       2.21455414
H       -0.55556956       0.37285511       2.48684228
