16
Properties=species:S:1:pos:R:3 energy:=T -17.899836407102=T gnorm:=T 0.000635713530=T xtb:=T 6.7.1=T (edcfbbe)=T pbc="F F F"
C       -0.58112120       1.05507218       0.38227912
C        0.08911248      -0.23129892      -0.21118083
C        1.41271366      -0.18942306      -0.19715770
C        2.06935536       1.08656373       0.48657739
C        1.46474185       1.31663231       1.92527123
C        0.05747734       1.31878382       1.94399085
H       -0.46517025       1.91660347      -0.25648875
H       -1.67683779       0.79549555       0.49434084
H       -0.49298997      -0.94490426      -0.55948177
H        2.03219650      -1.06559478      -0.52153596
H        3.17372387       0.85009417       0.46679127
H        1.97802183       1.78823991      -0.17791555
H        1.80641330       0.57197305       2.44058546
H        1.84648375       2.14825305       2.33809171
H       -0.51368367       2.25550070       2.20781945
H       -0.53384137       0.47975214       2.59857931
