16
Properties=species:S:1:pos:R:3 energy:=T -17.820713068479=T gnorm:=T 0.000405323679=T xtb:=T 6.7.1=T (edcfbbe)=T pbc="F F F"
C       -0.66469559       1.07429894      -0.25050096
C        0.00846708      -0.05624472      -0.24908210
C        1.44026322      -0.11436471      -0.34017651
C        2.09252487       1.00475534      -0.18909061
C        1.42867640       1.17290547       2.49584313
C       -0.00272991       1.16966404       2.58325848
H       -0.39824990       2.03564127      -0.17126309
H       -1.83040524       0.79554908      -0.15465451
H       -0.49486405      -0.99515050      -0.38082551
H        1.90661448      -0.97563231      -0.38008575
H        3.34340848       0.98451820      -0.12330169
H        1.80386966       2.02589328      -0.11776213
H        1.99079534       0.42838746       2.69778985
H        1.93384818       2.06241185       2.45773486
H       -0.50986524       2.24659007       2.43251595
H       -0.51399690       0.39951460       2.59504337
