16
Properties=species:S:1:pos:R:3 energy:=T -17.820307793211=T gnorm:=T 0.000596792534=T xtb:=T 6.7.1=T (edcfbbe)=T pbc="F F F"
C       -0.71832338       1.05433030       0.13465846
C       -0.04745348      -0.14746501      -0.17695279
C        1.33424297      -0.06824045      -0.24579468
C        2.17766061       0.95578916       0.13957863
C        1.44330046       1.26775787       2.11418861
C       -0.03402353       1.27978818       2.21811306
H       -0.29863707       1.98018974      -0.06626248
H       -1.73327020       0.99636911       0.19734022
H       -0.46970480      -1.02727012      -0.49015899
H        1.95942991      -1.01573093      -0.44865210
H        3.23327382       0.86240540       0.26831488
H        1.81621447       2.03322176      -0.02648911
H        1.87888155       0.25312770       2.51990466
H        1.98021307       2.27792430       2.34493935
H       -0.53506048       2.19993729       2.25809722
H       -0.56845261       0.49762633       2.52506652
