16
Properties=species:S:1:pos:R:3 energy:=T -17.812259918842=T gnorm:=T 0.000930443810=T xtb:=T 6.7.1=T (edcfbbe)=T pbc="F F F"
C       -0.70623831       0.97624896       0.06222526
C        0.05312782      -0.02087189      -0.26969074
C        1.49959220      -0.09428833      -0.27265352
C        2.08243239       1.06260006       0.08365174
C        1.38634111       1.29355267       2.29792107
C       -0.09882648       1.23023926       2.17672872
H       -0.25356926       2.15709460      -0.05198025
H       -1.76676519       0.93214343       0.20282488
H       -0.42879410      -0.94883409      -0.44184845
H        2.02394446      -1.07408687      -0.37046649
H        3.30638992       0.98661546       0.13001347
H        1.74414784       1.99046931      -0.02558901
H        2.02517933       0.25894841       2.51157393
H        1.99959090       2.18081293       2.31890539
H       -0.40940755       2.17686442       2.34095917
H       -0.45863038       0.43315790       2.37796613
