16
Properties=species:S:1:pos:R:3 energy:=T -17.899836407102=T gnorm:=T 0.000635713530=T xtb:=T 6.7.1=T (edcfbbe)=T pbc="F F F"
C       -0.53609983       0.87855469       0.35667526
C        0.07321285      -0.17098846      -0.21531962
C        1.37736231      -0.10003577      -0.23328384
C        2.11048557       0.99468346       0.36471274
C        1.47694361       1.35771265       1.93872728
C       -0.00680889       1.28938723       1.87406113
H       -0.50581040       1.84069338      -0.18404641
H       -1.76373753       0.76914964       0.47781424
H       -0.46657157      -1.12510018      -0.44846282
H        1.97303831      -1.01721249      -0.48857904
H        3.19168734       0.79915218       0.60536670
H        1.85201275       1.90281555      -0.14210687
H        1.82626505       0.49306865       2.58387621
H        2.06294108       2.19035902       2.23683415
H       -0.39361733       2.25395593       2.16159377
H       -0.39950455       0.50695011       2.58790743
