16
Properties=species:S:1:pos:R:3 energy:=T -17.899836407102=T gnorm:=T 0.000635713530=T xtb:=T 6.7.1=T (edcfbbe)=T pbc="F F F"
C       -0.64070891       0.91161116       0.38862482
C        0.05264731      -0.18206988      -0.28889713
C        1.36635342      -0.20744505      -0.20511110
C        2.03472081       0.99762039       0.36490507
C        1.42330943       1.25653475       1.88969874
C        0.03434801       1.14652381       1.91950528
H       -0.54780834       1.88408699      -0.14762002
H       -1.75375669       0.84625156       0.41345847
H       -0.38858924      -0.95765614      -0.49327718
H        1.89412610      -1.07404283      -0.49558455
H        3.17590180       0.82354873       0.48179820
H        1.84936961       1.95386689      -0.19620143
H        1.92361649       0.46092833       2.58839079
H        1.86582418       2.30367530       2.30526609
H       -0.38376497       2.27854753       2.27655631
H       -0.58256232       0.54823093       2.54304773
