16
Properties=species:S:1:pos:R:3 energy:=T -17.822885844677=T gnorm:=T 0.000351651283=T xtb:=T 6.7.1=T (edcfbbe)=T pbc="F F F"
C       -0.81262541       0.97834398      -0.43631044
C        0.11562937      -0.00061174      -0.31468242
C        1.50711177      -0.05890093      -0.36254401
C        2.22753863       0.99103459      -0.30862724
C        1.49641865       1.30217110       2.75950591
C        0.03720457       1.22092613       2.87287843
H       -0.34413582       2.00867040      -0.28752214
H       -1.92347079       0.91447119      -0.25144711
H       -0.47543478      -1.06243521      -0.44319081
H        1.92614142      -1.15563493      -0.44415976
H        3.25948116       0.97941754      -0.36365751
H        1.88809112       2.10810127      -0.28531378
H        1.92314118       0.36697710       2.83919103
H        1.89773885       2.20581780       2.82736391
H       -0.51315692       2.16053987       2.61851764
H       -0.47244515       0.26883636       2.76379736
