16
Properties=species:S:1:pos:R:3 energy:=T -17.817532948576=T gnorm:=T 0.000396279826=T xtb:=T 6.7.1=T (edcfbbe)=T pbc="F F F"
C       -0.65344225       0.97151207      -0.04986494
C       -0.01648760       0.02476250      -0.40064363
C        1.41698047      -0.09319026      -0.24787300
C        2.24963370       1.09262093      -0.14664828
C        1.44133374       1.23010501       2.38115800
C        0.10400770       1.19350817       2.29872806
H       -0.36188706       1.91847241      -0.06494927
H       -1.79547699       0.95360193       0.09457151
H       -0.46970667      -1.12153168      -0.42455453
H        1.87437031      -1.10308524      -0.35495937
H        3.24949406       0.81990890       0.04257822
H        1.80374150       2.02682069      -0.02087389
H        2.00079947       0.34380763       2.62390987
H        1.99187353       2.18303699       2.39908845
H       -0.58212273       2.15055469       2.36000573
H       -0.48181874       0.26225749       2.64716049
