16
Properties=species:S:1:pos:R:3 energy:=T -17.817532948576=T gnorm:=T 0.000396279826=T xtb:=T 6.7.1=T (edcfbbe)=T pbc="F F F"
C       -0.73142654       0.96515069      -0.03576616
C        0.06416648      -0.05984765      -0.25329052
C        1.42048835      -0.20805211      -0.22514922
C        2.26198090       1.02124602      -0.05003111
C        1.46828850       1.21601013       2.37177384
C        0.05960956       1.32848671       2.32528916
H       -0.25884435       1.96229248      -0.10223900
H       -1.73110231       0.92875829      -0.08694650
H       -0.48255029      -0.96836255      -0.29895485
H        1.89889795      -1.00419162      -0.33160936
H        3.24314777       0.95966653      -0.00030875
H        1.77363296       1.97235681      -0.02247009
H        1.96594204       0.30295668       2.52260219
H        2.04310416       2.17474228       2.43561014
H       -0.41493649       2.20039698       2.53028363
H       -0.55032093       0.39684747       2.52997377
