16
Properties=species:S:1:pos:R:3 energy:=T -17.899836407102=T gnorm:=T 0.000635713530=T xtb:=T 6.7.1=T (edcfbbe)=T pbc="F F F"
C       -0.58778454       1.03208580       0.27484180
C        0.09212567      -0.11789860      -0.17893181
C        1.45421573      -0.19459263      -0.25349003
C        2.16815938       0.93811636       0.24304648
C        1.54250904       1.25420644       1.92304065
C       -0.09237115       1.22235350       1.87794720
H       -0.47092763       1.92869755      -0.31859844
H       -1.67734831       0.77548610       0.40569353
H       -0.46475925      -1.01443054      -0.64004650
H        2.06888172      -1.05606352      -0.54489639
H        3.19775626       0.91340400       0.43829973
H        1.97548629       1.86977772      -0.13767785
H        1.85538806       0.48047817       2.65938283
H        1.92341918       2.25431013       2.35898633
H       -0.41731315       2.20534408       2.27890940
H       -0.48882005       0.55986021       2.62293137
