16
Properties=species:S:1:pos:R:3 energy:=T -17.822956346966=T gnorm:=T 0.000685981590=T xtb:=T 6.7.1=T (edcfbbe)=T pbc="F F F"
C       -0.62556597       0.92527513      -0.38406019
C        0.07699725      -0.07824505      -0.45354524
C        1.37641413      -0.03342666      -0.33546062
C        2.33661597       1.00660216      -0.28612209
C        1.32649073       1.27837287       2.77966948
C        0.08812646       1.31594141       2.89228808
H       -0.44569448       2.08520836      -0.34667866
H       -1.91532756       0.90474881      -0.45086077
H       -0.44782186      -1.03064954      -0.45434305
H        1.95268782      -1.06960100      -0.44116203
H        3.22635701       0.91850713      -0.41144696
H        1.82289740       1.99747784      -0.30380099
H        1.85787711       0.25688381       2.88658423
H        1.99584664       2.20013819       2.79695048
H       -0.41140289       2.20893556       2.73813526
H       -0.56051939       0.29669477       2.87594495
