16
Properties=species:S:1:pos:R:3 energy:=T -17.813369164842=T gnorm:=T 0.000460668107=T xtb:=T 6.7.1=T (edcfbbe)=T pbc="F F F"
C       -0.73085448       0.98194508       0.01851068
C       -0.01386404      -0.01460925      -0.30917972
C        1.42160818      -0.13683100      -0.28730385
C        2.13166170       1.00459244       0.09724830
C        1.42671196       1.26669187       2.33381405
C        0.06996692       1.22703111       2.29214143
H       -0.27213881       1.94411131       0.07333465
H       -1.78667451       0.89646051       0.09518855
H       -0.50542252      -1.01478247      -0.42453372
H        2.00464839      -1.07389158      -0.52214378
H        3.21292414       0.81740503       0.12338306
H        1.85627162       2.05285664      -0.09480209
H        1.91475482       0.44608592       2.51621398
H        1.96718785       2.21866552       2.46304752
H       -0.41551676       2.16115384       2.33133724
H       -0.45390067       0.29599722       2.42976171
