16
Properties=species:S:1:pos:R:3 energy:=T -17.820713068479=T gnorm:=T 0.000405323679=T xtb:=T 6.7.1=T (edcfbbe)=T pbc="F F F"
C       -0.79548846       1.00623910      -0.08411351
C        0.13350376      -0.07272582      -0.30595565
C        1.47172210       0.02151009      -0.30481891
C        2.32381951       0.94815433      -0.15262228
C        1.38243664       1.30363031       2.59732820
C       -0.01954509       1.19693194       2.55290960
H       -0.40112937       1.90852386      -0.01711664
H       -1.80417074       0.95956585      -0.14472058
H       -0.38864165      -1.05215814      -0.32290567
H        1.86602545      -1.09066317      -0.37881958
H        3.26110801       0.97102949      -0.09859043
H        1.77192665       2.00858749      -0.10429295
H        2.02174433       0.30673956       2.60783404
H        2.04265523       2.30527823       2.59088959
H       -0.49271824       2.17864481       2.56170471
H       -0.50215132       0.28521256       2.64271692
