16
Properties=species:S:1:pos:R:3 energy:=T -17.812259918842=T gnorm:=T 0.000930443810=T xtb:=T 6.7.1=T (edcfbbe)=T pbc="F F F"
C       -0.69768078       0.95979997       0.07113781
C        0.03248947       0.08464097      -0.33949984
C        1.43590345      -0.07316478      -0.25835087
C        2.23691807       0.98858837       0.02326463
C        1.30645316       1.16962730       2.29266830
C        0.06306540       1.16402317       2.23539948
H       -0.31181142       2.04828666      -0.06008243
H       -1.78675173       0.83177015       0.11048949
H       -0.36328280      -1.15934579      -0.40737651
H        1.94901610      -1.04507367      -0.43701868
H        3.23712805       0.94603475       0.17783363
H        1.66549827       2.00728773      -0.07656522
H        1.92591819       0.34618300       2.52558429
H        2.02164106       2.11802131       2.35078207
H       -0.42119786       2.22092140       2.38011868
H       -0.49962563       0.32094801       2.53720266
