16
Properties=species:S:1:pos:R:3 energy:=T -17.822885844677=T gnorm:=T 0.000351651283=T xtb:=T 6.7.1=T (edcfbbe)=T pbc="F F F"
C       -0.79999895       1.04572399      -0.31685582
C        0.01299718      -0.08238297      -0.31386274
C        1.46028445      -0.18722709      -0.41524664
C        2.13664401       0.82641579      -0.34143801
C        1.46646139       1.26683567       2.69911933
C        0.02509756       1.32633499       2.77215733
H       -0.37607897       2.00112526      -0.26178896
H       -1.80356528       0.94937164      -0.29922636
H       -0.50590288      -1.01886589      -0.46567364
H        1.97871752      -1.11670559      -0.43565098
H        3.31738467       0.84632292      -0.21652745
H        1.92889158       1.97861523      -0.22154295
H        1.98498565       0.21042102       2.85307707
H        1.96217940       2.17893162       2.63069317
H       -0.51033021       2.16459807       2.75505794
H       -0.47586007       0.35363022       2.92328379
