16
Properties=species:S:1:pos:R:3 energy:=T -17.820713068479=T gnorm:=T 0.000405323679=T xtb:=T 6.7.1=T (edcfbbe)=T pbc="F F F"
C       -0.73526460       0.96027964      -0.23720249
C       -0.07326230      -0.02383012      -0.34726199
C        1.45100992      -0.05030091      -0.26671703
C        2.21208694       1.03793794      -0.19299626
C        1.37371540       1.19440758       2.59794829
C        0.07353634       1.21109680       2.51118090
H       -0.37278365       2.04496204      -0.17554087
H       -1.89579490       0.90652847       0.03315938
H       -0.39729370      -1.04362553      -0.35003857
H        2.04349763      -1.05076283      -0.41307901
H        3.37601643       0.95756263      -0.07564943
H        1.80009545       2.11652466       0.01769617
H        1.99739839       0.38642018       2.51684416
H        2.00397886       2.15353519       2.49089174
H       -0.45678030       2.14496419       2.36669228
H       -0.47283798       0.30309617       2.61608081
