16
Properties=species:S:1:pos:R:3 energy:=T -17.899836407102=T gnorm:=T 0.000635713530=T xtb:=T 6.7.1=T (edcfbbe)=T pbc="F F F"
C       -0.65357892       0.96938393       0.44563988
C        0.04465573      -0.20968561      -0.12706832
C        1.48628464      -0.14472503      -0.30922380
C        2.08216426       1.03210605       0.35879648
C        1.58293706       1.20921508       1.98070462
C       -0.05641841       1.37350311       1.93477467
H       -0.38886105       1.86952222      -0.28263230
H       -1.78507179       0.80121190       0.39975241
H       -0.42746914      -0.92873269      -0.54179592
H        1.90780344      -1.01759190      -0.59990442
H        3.27590759       0.85775177       0.49237310
H        1.89755931       1.78638808      -0.24433568
H        1.82773560       0.52231342       2.56460336
H        1.85765249       2.22475914       2.33556392
H       -0.49506453       2.19264241       2.22596246
H       -0.46875405       0.47377513       2.59133857
