16
Properties=species:S:1:pos:R:3 energy:=T -17.820307793211=T gnorm:=T 0.000596792534=T xtb:=T 6.7.1=T (edcfbbe)=T pbc="F F F"
C       -0.52896831       1.06377115       0.24913043
C        0.00044881      -0.00847323      -0.20290909
C        1.50154185      -0.08252567      -0.34184460
C        2.13088348       0.91896751       0.07399411
C        1.43951097       1.17091723       2.14430541
C        0.02964160       1.31631116       2.21704706
H       -0.32284475       2.07648459      -0.12920823
H       -1.75652230       0.99191510       0.20973903
H       -0.49048817      -1.08353888      -0.41842066
H        2.02784469      -1.05522235      -0.41304683
H        3.16511419       0.88946288       0.21001478
H        1.86297289       2.13389132      -0.06637608
H        1.91456789       0.37773626       2.48907552
H        1.99305654       2.16652487       2.32224012
H       -0.45295183       2.12324392       2.28819349
H       -0.56585709       0.32071218       2.43495553
