16
Properties=species:S:1:pos:R:3 energy:=T -17.854084315501=T gnorm:=T 0.000809990318=T xtb:=T 6.7.1=T (edcfbbe)=T pbc="F F F"
C       -0.68630833       1.12238612       0.24178956
C        0.05192695      -0.15118188      -0.28879366
C        1.43066884      -0.13617462      -0.15039489
C        2.16348658       1.03929124       0.24566438
C        1.38580539       1.26189108       1.99658724
C        0.05717688       1.26543810       2.14305605
H       -0.34253355       2.01043063      -0.15817217
H       -1.71563579       0.92694019       0.41865357
H       -0.53236816      -0.99813007      -0.35782599
H        1.95602080      -1.04167456      -0.54960502
H        3.11322380       0.95845998       0.36908769
H        1.87314617       2.06918464      -0.02771289
H        1.87232751       0.49433694       2.59753850
H        1.95226965       2.24022661       2.29727318
H       -0.36630698       2.24839869       2.31883285
H       -0.38158398       0.48551288       2.58821689
