16
Properties=species:S:1:pos:R:3 energy:=T -17.820307793211=T gnorm:=T 0.000596792534=T xtb:=T 6.7.1=T (edcfbbe)=T pbc="F F F"
C       -0.62563570       1.06764248       0.21947311
C       -0.01378111      -0.02138839      -0.25522050
C        1.52215091      -0.15084077      -0.26989218
C        2.12428002       0.94021177       0.11894390
C        1.49757036       1.19417962       2.11233053
C        0.08331568       1.27520864       2.20732596
H       -0.36449731       2.01311632      -0.03314027
H       -1.77621845       0.90498804       0.31754025
H       -0.38978523      -1.08184816      -0.56861780
H        1.86602721      -1.07406863      -0.43193568
H        3.24398145       0.93851329       0.23258073
H        1.79911985       1.96290318      -0.09301571
H        1.91455116       0.49161951       2.55109931
H        1.90678212       2.09664562       2.28397387
H       -0.57457414       2.11147940       2.26728646
H       -0.43110077       0.31898872       2.46178635
