16
Properties=species:S:1:pos:R:3 energy:=T -17.813369164842=T gnorm:=T 0.000460668107=T xtb:=T 6.7.1=T (edcfbbe)=T pbc="F F F"
C       -0.78479294       0.93565983       0.05908982
C        0.01460361      -0.15303590      -0.33381399
C        1.44719304       0.02053031      -0.23020887
C        2.22828004       0.91513634       0.02335448
C        1.42665709       1.25336505       2.33102830
C        0.05031465       1.32797485       2.38901829
H       -0.32811229       1.95540276       0.09829456
H       -1.82222980       1.00572083       0.22712394
H       -0.51771651      -1.01214636      -0.40167901
H        1.95791083      -1.01049697      -0.27626454
H        3.28789450       0.93981768       0.18426812
H        1.77170402       1.98900830       0.10841191
H        1.91449550       0.30447896       2.49541904
H        1.90590896       2.03378635       2.36360868
H       -0.54304879       2.11958663       2.28548924
H       -0.54954675       0.27248990       2.50180720
