16
Properties=species:S:1:pos:R:3 energy:=T -17.899836407102=T gnorm:=T 0.000635713530=T xtb:=T 6.7.1=T (edcfbbe)=T pbc="F F F"
C       -0.64405485       0.86756608       0.39367262
C        0.03518339      -0.11904934      -0.30142568
C        1.43644416      -0.17804841      -0.15992775
C        2.06940019       0.96170466       0.47731859
C        1.44380064       1.25500264       1.92454043
C       -0.07268013       1.35623150       2.03136607
H       -0.48933210       1.81699102      -0.13407933
H       -1.65817008       0.88207261       0.52399705
H       -0.54702289      -1.01945457      -0.63228755
H        1.89529719      -0.95803755      -0.59386584
H        3.30872630       0.84242123       0.42833714
H        1.96451455       2.00524355      -0.17133271
H        1.83098333       0.51949882       2.63207928
H        1.88028085       2.20721890       2.29415060
H       -0.42903527       2.18987418       2.21964752
H       -0.46637889       0.51575025       2.56474601
