16
Properties=species:S:1:pos:R:3 energy:=T -17.822313566467=T gnorm:=T 0.000397917922=T xtb:=T 6.7.1=T (edcfbbe)=T pbc="F F F"
C       -0.70432044       1.07055109      -0.16281128
C       -0.01897497      -0.03327520      -0.34291480
C        1.43762981      -0.08408166      -0.41241186
C        2.15457758       1.05459294      -0.23876793
C        1.40661144       1.31863428       2.54393195
C        0.02958400       1.26946232       2.67044011
H       -0.39452359       2.06563014      -0.15304888
H       -1.91603917       0.86829167      -0.17074178
H       -0.42260463      -1.15493645      -0.32742487
H        1.95583202      -0.96193173      -0.43046324
H        3.29621944       0.85666742      -0.06767671
H        1.83162966       2.09887600      -0.20412340
H        1.97400674       0.24995467       2.70886581
H        2.02458601       2.09465318       2.63939172
H       -0.47595083       2.10705017       2.54572738
H       -0.52161282       0.34651889       2.69975341
