16
Properties=species:S:1:pos:R:3 energy:=T -17.820713068479=T gnorm:=T 0.000405323679=T xtb:=T 6.7.1=T (edcfbbe)=T pbc="F F F"
C       -0.77470023       1.11431695      -0.04959371
C        0.04763224      -0.04871576      -0.36724252
C        1.49163704      -0.06204407      -0.29193805
C        2.19585771       1.00502526      -0.15561200
C        1.41184006       1.34169281       2.55166273
C       -0.03282953       1.18990483       2.42852565
H       -0.41304657       2.03636779      -0.05988888
H       -1.87608900       0.94247689      -0.16584133
H       -0.54611395      -1.12914547      -0.44907958
H        2.01006198      -1.12501686      -0.31603380
H        3.38611365       0.91405192      -0.12111388
H        1.78788890       1.99931897      -0.04375095
H        1.96171542       0.40633367       2.70727845
H        1.98522159       2.18237006       2.45839795
H       -0.47800565       2.09114206       2.48794089
H       -0.48461971       0.28860048       2.76831460
