16
Properties=species:S:1:pos:R:3 energy:=T -17.822956346966=T gnorm:=T 0.000685981590=T xtb:=T 6.7.1=T (edcfbbe)=T pbc="F F F"
C       -0.81338944       0.99543488      -0.25495452
C       -0.05368467       0.01985667      -0.45530143
C        1.44915683      -0.02313740      -0.36738560
C        2.26151510       0.91464813      -0.33404428
C        1.33822101       1.40536259       2.81188088
C        0.08704616       1.20603389       2.79764632
H       -0.45115237       2.05616958      -0.33015621
H       -1.81902667       0.87901778      -0.38347633
H       -0.37900719      -1.10145320      -0.53807389
H        1.93992322      -1.11054944      -0.46500013
H        3.36812210       0.87183968      -0.30946449
H        1.81534118       2.08348962      -0.24502004
H        1.93872464       0.34621650       2.86141573
H        1.97599955       2.23857046       2.66178820
H       -0.44604477       2.10590941       2.69329225
H       -0.58994448       0.47060299       2.90920618
