16
Properties=species:S:1:pos:R:3 energy:=T -17.812259918842=T gnorm:=T 0.000930443810=T xtb:=T 6.7.1=T (edcfbbe)=T pbc="F F F"
C       -0.68193090       0.88215659       0.03726410
C        0.00092530      -0.11781326      -0.27479032
C        1.51018380      -0.08990679      -0.34930132
C        2.28428957       0.99426299       0.00611721
C        1.42308393       1.25175379       2.21948548
C        0.10435283       1.20076076       2.20731537
H       -0.30381605       2.05962195      -0.05811675
H       -1.75250388       0.94109364       0.34081940
H       -0.50477339      -0.94417637      -0.38902224
H        1.92812613      -0.98117305      -0.33616373
H        3.31176398       0.96470938       0.14946208
H        1.75374074       2.04504743       0.00975507
H        2.03853062       0.35526320       2.54445534
H        2.04989360       2.15849882       2.20957874
H       -0.56101983       2.06899188       2.38149692
H       -0.53779371       0.40074021       2.51795602
