16
Properties=species:S:1:pos:R:3 energy:=T -17.812259918842=T gnorm:=T 0.000930443810=T xtb:=T 6.7.1=T (edcfbbe)=T pbc="F F F"
C       -0.77481918       1.06569460       0.06004946
C        0.05052550      -0.08971615      -0.26681904
C        1.39665677      -0.06447130      -0.24955468
C        2.17379812       0.99093289       0.00712787
C        1.42027554       1.24951680       2.24273915
C        0.01213670       1.26187825       2.41389477
H       -0.33268635       2.03759233       0.00086941
H       -1.93128261       0.95405373       0.13888703
H       -0.37869557      -1.03737484      -0.43466410
H        1.92156045      -1.01108891      -0.42108403
H        3.23768609       0.86176396       0.16893658
H        1.83222926       2.13957148       0.02143041
H        1.97740672       0.40582581       2.54887908
H        2.06907823       2.21691626       2.28521526
H       -0.47899018       2.16051304       2.31144661
H       -0.47793633       0.28304484       2.35383368
