16
Properties=species:S:1:pos:R:3 energy:=T -17.822956346966=T gnorm:=T 0.000685981590=T xtb:=T 6.7.1=T (edcfbbe)=T pbc="F F F"
C       -0.85243377       1.02355329      -0.45293300
C       -0.11160422      -0.08591792      -0.45421809
C        1.47136574       0.06427235      -0.45019955
C        2.20962496       1.01523649      -0.32443208
C        1.38267706       1.25541055       2.86471654
C        0.10755172       1.20665469       2.81867287
H       -0.37981017       1.94138654      -0.30079327
H       -1.89975920       0.97301432      -0.34523491
H       -0.44285548      -1.08414298      -0.44841586
H        1.80043212      -1.11597448      -0.42004653
H        3.19381252       0.96563437      -0.45946335
H        1.89647137       1.95370379      -0.27021660
H        1.97172954       0.26711380       2.97964159
H        2.05020740       2.17304159       2.72326773
H       -0.50468359       2.11948662       2.80413844
H       -0.52602008       0.35465864       2.85932005
