16
Properties=species:S:1:pos:R:3 energy:=T -17.812259918842=T gnorm:=T 0.000930443810=T xtb:=T 6.7.1=T (edcfbbe)=T pbc="F F F"
C       -0.62862407       1.00473448       0.05916614
C       -0.02828155      -0.16829253      -0.30744414
C        1.40478521      -0.03492445      -0.36899057
C        2.25178122       1.03483252       0.06101194
C        1.36976589       1.18354183       2.19509611
C        0.02946697       1.22832889       2.24887069
H       -0.39362587       2.00155589      -0.07311343
H       -1.76195246       1.05155563       0.21829311
H       -0.48285808      -1.11321672      -0.46594289
H        1.84001183      -0.98051991      -0.42929074
H        3.24450859       0.91124184       0.18815339
H        1.86288804       1.97791550      -0.04194303
H        1.91491215       0.38124529       2.42733331
H        1.90120710       2.07097344       2.21308480
H       -0.46855666       2.29432043       2.23639660
H       -0.43674475       0.34608909       2.42303428
