16
Properties=species:S:1:pos:R:3 energy:=T -17.817532948576=T gnorm:=T 0.000396279826=T xtb:=T 6.7.1=T (edcfbbe)=T pbc="F F F"
C       -0.73810102       0.94013381      -0.15481903
C       -0.00258957      -0.06754469      -0.32871321
C        1.46152220      -0.09984601      -0.25431161
C        2.17176976       1.00886789       0.00264403
C        1.54816582       1.18820032       2.39282443
C        0.02328544       1.29320862       2.35278155
H       -0.36863914       2.00422731      -0.08438324
H       -1.87326857       0.90751121      -0.12118500
H       -0.54273225      -1.05616423      -0.37170413
H        1.91719089      -1.13588218      -0.40756286
H        3.33396302       0.96798021      -0.00274478
H        1.75826083       2.04295863      -0.06096782
H        1.89539847       0.29458818       2.63655565
H        1.97994900       2.22805340       2.34706345
H       -0.44207175       2.12493049       2.36592978
H       -0.34827130       0.38656867       2.52234438
