16
Properties=species:S:1:pos:R:3 energy:=T -17.813369164842=T gnorm:=T 0.000460668107=T xtb:=T 6.7.1=T (edcfbbe)=T pbc="F F F"
C       -0.72638211       1.10701787       0.00184582
C       -0.02395402      -0.17941852      -0.23802918
C        1.42705877       0.05586129      -0.27016507
C        2.19447249       0.92011660       0.10593941
C        1.38210141       1.22374217       2.19508754
C        0.11087807       1.28286482       2.27736383
H       -0.31797517       2.02940170       0.03571249
H       -1.78637665       1.02906696       0.11051669
H       -0.49699766      -1.05173543      -0.51278448
H        1.88858538      -0.97596301      -0.36874846
H        3.21387172       0.95861380       0.01930405
H        1.77230734       2.03634126       0.02221786
H        1.91998482       0.37853121       2.58949876
H        1.94219950       2.18765833       2.22624428
H       -0.60052150       2.18111820       2.30852945
H       -0.48511325       0.30176229       2.47840379
