16
Properties=species:S:1:pos:R:3 energy:=T -17.899836407102=T gnorm:=T 0.000635713530=T xtb:=T 6.7.1=T (edcfbbe)=T pbc="F F F"
C       -0.51437918       1.00730607       0.41619273
C        0.00801140      -0.14352018      -0.16123544
C        1.51194966      -0.20886091      -0.16534228
C        2.13765652       0.93093192       0.35650039
C        1.47162537       1.14754774       1.97665155
C        0.01557264       1.26534571       1.85582882
H       -0.35942741       1.92565056      -0.13314218
H       -1.62927800       0.80574176       0.51299459
H       -0.51580093      -1.01437087      -0.56380702
H        1.97085443      -0.94085044      -0.55030116
H        3.17754888       0.82120774       0.48379435
H        1.86611508       1.87780306      -0.20052364
H        1.86059023       0.49231753       2.52059514
H        2.03164320       2.33142062       2.26801578
H       -0.43984663       2.38539184       2.26005531
H       -0.43149414       0.51886463       2.57798788
