16
Properties=species:S:1:pos:R:3 energy:=T -17.899836407102=T gnorm:=T 0.000635713530=T xtb:=T 6.7.1=T (edcfbbe)=T pbc="F F F"
C       -0.65210558       1.00201250       0.29787197
C        0.03220442      -0.15540987      -0.26522227
C        1.32176018      -0.18573584      -0.12884308
C        2.13056529       1.08482031       0.34959309
C        1.46892086       1.20668965       1.90371075
C        0.07048115       1.31296298       1.98463007
H       -0.40823830       1.90846175      -0.20923492
H       -1.70992801       0.87970088       0.49058600
H       -0.47037330      -1.00094928      -0.60600726
H        1.95478337      -1.06850006      -0.49599142
H        3.05734237       0.82501176       0.60990400
H        1.90086874       1.83909858      -0.19836984
H        1.97551961       0.48980318       2.59658392
H        1.91276054       2.22545740       2.43446553
H       -0.43210712       2.21551050       2.20964561
H       -0.40257439       0.52521732       2.60656713
