16
Properties=species:S:1:pos:R:3 energy:=T -17.812259918842=T gnorm:=T 0.000930443810=T xtb:=T 6.7.1=T (edcfbbe)=T pbc="F F F"
C       -0.71566461       1.00710961       0.03836510
C        0.12886049      -0.16395263      -0.26567505
C        1.46116381      -0.09356584      -0.27796625
C        2.21754305       1.02758809       0.09714395
C        1.44656645       1.12016254       2.33731036
C        0.18106265       1.28002230       2.31265960
H       -0.38850680       2.01027583      -0.06578531
H       -1.80212889       0.99762201       0.14036765
H       -0.47208835      -1.12276780      -0.39450306
H        1.93998409      -1.05888444      -0.42430392
H        3.34105738       0.88216602       0.12726716
H        1.74085809       2.08017487       0.08879484
H        1.97804437       0.29382896       2.46253066
H        2.02164356       2.10095578       2.36966158
H       -0.41997851       2.15304707       2.32685402
H       -0.45067193       0.41437366       2.42944755
