16
Properties=species:S:1:pos:R:3 energy:=T -17.854084315501=T gnorm:=T 0.000809990318=T xtb:=T 6.7.1=T (edcfbbe)=T pbc="F F F"
C       -0.63391655       1.08691335       0.30100085
C        0.06507944       0.00123049      -0.20410687
C        1.38327427      -0.08967813      -0.22052140
C        2.07242342       1.01275157       0.24781547
C        1.34009612       1.25587573       2.02763820
C       -0.02674884       1.16012693       2.02303137
H       -0.38790708       1.96844413      -0.24551372
H       -1.68660575       0.80979329       0.35039420
H       -0.40606218      -1.07184685      -0.54359868
H        2.03110606      -1.05179757      -0.52863743
H        3.21191672       0.95756225       0.22214050
H        1.80181255       1.89629604      -0.24429633
H        1.86845209       0.37841456       2.58081510
H        1.87125892       2.22024741       2.32457829
H       -0.50627627       2.22099133       2.40486113
H       -0.43339217       0.39184519       2.55707340
