16
Properties=species:S:1:pos:R:3 energy:=T -17.813369164842=T gnorm:=T 0.000460668107=T xtb:=T 6.7.1=T (edcfbbe)=T pbc="F F F"
C       -0.79886594       0.97264313      -0.02877025
C        0.04927749      -0.01689875      -0.30096605
C        1.38045810      -0.01644058      -0.40655855
C        2.07091058       1.05632243       0.06801307
C        1.45874060       1.21960272       2.23420699
C        0.03348344       1.26592169       2.26348171
H       -0.36396944       1.92703830      -0.08231390
H       -1.74157514       0.96770964       0.05454852
H       -0.52946240      -1.06073142      -0.34968341
H        1.86118820      -1.03743261      -0.50900434
H        3.18180769       0.96575207       0.17637097
H        1.71874057       1.96380125       0.03374134
H        1.93689734       0.29977521       2.52429766
H        1.97590532       2.21552917       2.35343985
H       -0.53358083       2.14277247       2.30293165
H       -0.57544139       0.27430102       2.55113557
