16
Properties=species:S:1:pos:R:3 energy:=T -17.812259918842=T gnorm:=T 0.000930443810=T xtb:=T 6.7.1=T (edcfbbe)=T pbc="F F F"
C       -0.60818193       1.07373800       0.06947082
C        0.01561206      -0.05821782      -0.27640818
C        1.41485988      -0.06458032      -0.19882748
C        2.07889049       1.03347013       0.02593359
C        1.41992428       1.27341026       2.25575987
C        0.10201160       1.14197092       2.31877327
H       -0.34642560       2.05023360      -0.01283217
H       -1.91086497       0.90541103       0.19494798
H       -0.38110984      -1.00596804      -0.37215529
H        1.85877666      -0.94406205      -0.28834131
H        3.24252153       0.93445782       0.09540949
H        1.83157026       2.16277680       0.01609866
H        2.02879245       0.36121442       2.43193030
H        2.03747042       2.08249608       2.28117947
H       -0.48004638       2.19709111       2.31508082
H       -0.46951954       0.29071747       2.41547104
