16
Properties=species:S:1:pos:R:3 energy:=T -17.820713068479=T gnorm:=T 0.000405323679=T xtb:=T 6.7.1=T (edcfbbe)=T pbc="F F F"
C       -0.78261911       1.08274616      -0.16250369
C        0.00295090      -0.09578228      -0.32930926
C        1.52047883      -0.07732683      -0.35856473
C        2.06224930       0.97759364      -0.24805162
C        1.29555823       1.29760336       2.57036321
C       -0.02927572       1.30068820       2.55679673
H       -0.40248602       2.04399142      -0.17081858
H       -1.90073345       0.85024259      -0.17542628
H       -0.40532549      -1.10972747      -0.45435894
H        1.87137899      -1.02645263      -0.41015200
H        3.35211075       0.88993367      -0.18511346
H        1.80235941       2.00591566      -0.13312636
H        1.97922708       0.44504132       2.60334691
H        1.96866844       2.23802984       2.42970296
H       -0.54340607       2.10471898       2.48651308
H       -0.46707738       0.33755882       2.63683462
