16
Properties=species:S:1:pos:R:3 energy:=T -17.854084315501=T gnorm:=T 0.000809990318=T xtb:=T 6.7.1=T (edcfbbe)=T pbc="F F F"
C       -0.58838462       1.04986327       0.20686798
C        0.03085337      -0.12020441      -0.27980386
C        1.38687485      -0.18679456      -0.26061115
C        2.15006183       1.05948627       0.25903389
C        1.57544631       1.26314629       2.21128025
C        0.05360686       1.29290764       2.02030400
H       -0.53144886       1.95378257      -0.16237466
H       -1.62832078       0.81754286       0.46356193
H       -0.50401613      -0.98931819      -0.64175397
H        1.96843287      -1.04458674      -0.47400261
H        3.20223959       0.83018131       0.41453241
H        1.89164663       1.99270213      -0.12153372
H        1.98099326       0.43184063       2.49099657
H        1.85736505       2.28212472       2.33528159
H       -0.45362995       2.19002753       2.30027077
H       -0.45300894       0.41577057       2.52512147
