16
Properties=species:S:1:pos:R:3 energy:=T -17.899836407102=T gnorm:=T 0.000635713530=T xtb:=T 6.7.1=T (edcfbbe)=T pbc="F F F"
C       -0.68675065       0.95289218       0.36953196
C        0.07145092      -0.23016067      -0.16558116
C        1.26452976      -0.19402793      -0.22970748
C        2.10070813       1.01500189       0.27652816
C        1.52697482       1.28074927       1.89630554
C       -0.10850353       1.21451984       1.96318185
H       -0.51549918       1.91329545      -0.12637900
H       -1.64901800       0.94140850       0.44272463
H       -0.57249312      -0.94299914      -0.53799590
H        2.04524278      -1.00963493      -0.47898255
H        3.24309832       0.88582838       0.49578367
H        1.94825077       1.92457723      -0.18232614
H        1.96136458       0.46586317       2.67345869
H        1.89956465       2.31362717       2.23397105
H       -0.45280808       2.38303418       2.21945056
H       -0.51051334       0.45273935       2.53792343
