16
Properties=species:S:1:pos:R:3 energy:=T -17.917372504997=T gnorm:=T 0.000972558229=T xtb:=T 6.7.1=T (edcfbbe)=T pbc="F F F"
C       -0.55412592       0.99258048       0.53198131
C        0.01825128      -0.12905459      -0.24420917
C        1.50917522      -0.19112695      -0.18755954
C        2.16698159       1.07077359       0.33552316
C        1.47481831       1.20955016       1.89499486
C       -0.03219861       1.27386594       1.84455167
H       -0.49760487       1.84360252      -0.16461575
H       -1.61689033       0.70567716       0.49620138
H       -0.53113737      -0.96824084      -0.62580258
H        1.96696883      -1.06093106      -0.52685566
H        3.18582106       0.81435641       0.52548092
H        1.92847206       1.79502484      -0.15926417
H        1.89858295       0.50909562       2.60533698
H        1.96975613       2.18753575       2.16274509
H       -0.33031196       2.34186124       2.16435641
H       -0.48364516       0.48037421       2.51479284
