16
Properties=species:S:1:pos:R:3 energy:=T -17.854084315501=T gnorm:=T 0.000809990318=T xtb:=T 6.7.1=T (edcfbbe)=T pbc="F F F"
C       -0.71977484       1.02575382       0.31652094
C        0.00884011      -0.15133217      -0.17306749
C        1.37303921      -0.12475447      -0.31561186
C        2.07332375       0.97370703       0.40113702
C        1.44130502       1.23237952       2.00917086
C       -0.00906306       1.31018265       2.05853593
H       -0.25050656       1.97581497      -0.07676871
H       -1.70965044       0.92859873       0.27038389
H       -0.49934222      -1.03129442      -0.52627204
H        1.82019518      -0.96910999      -0.53467214
H        3.16881998       0.87255771       0.35059742
H        1.88238084       1.87855713      -0.23472687
H        1.94307534       0.44250686       2.53655871
H        1.89141655       2.15762824       2.29470342
H       -0.38155325       2.14319634       2.39843771
H       -0.39899858       0.40351708       2.61258840
