16
Properties=species:S:1:pos:R:3 energy:=T -17.813369164842=T gnorm:=T 0.000460668107=T xtb:=T 6.7.1=T (edcfbbe)=T pbc="F F F"
C       -0.66589838       1.21875027       0.06472021
C        0.02278119      -0.11441129      -0.23347120
C        1.36402811      -0.10388240      -0.26857521
C        2.12510702       1.09076299       0.08427130
C        1.37296736       1.20488270       2.24309452
C       -0.00620947       1.25488646       2.34039351
H       -0.30449902       2.02318518      -0.04120443
H       -1.77306923       0.86741671       0.12400450
H       -0.39138067      -0.96085973      -0.40498625
H        1.91390398      -0.95807958      -0.29220333
H        3.18152841       0.91982641       0.13532846
H        1.84855652       1.96790233       0.01907474
H        1.94526714       0.45122119       2.51549438
H        1.95790087       2.13330000       2.35972366
H       -0.46513168       2.09584974       2.31769006
H       -0.56202525       0.29430313       2.42905973
