16
Properties=species:S:1:pos:R:3 energy:=T -17.822956346966=T gnorm:=T 0.000685981590=T xtb:=T 6.7.1=T (edcfbbe)=T pbc="F F F"
C       -0.82007615       0.91395351      -0.26573931
C       -0.00244748      -0.00056598      -0.40026915
C        1.41323668      -0.09077695      -0.44029855
C        2.24693991       0.97694448      -0.37441001
C        1.29685624       1.21123134       2.93877141
C        0.03007467       1.19398591       2.84688055
H       -0.28367250       1.90203168      -0.33065481
H       -1.89332525       0.79283989      -0.30529834
H       -0.44975315      -1.04433663      -0.49393346
H        1.94986917      -1.08695665      -0.45139667
H        3.24186852       0.83088219      -0.26338288
H        1.81649638       2.02387302      -0.31846895
H        1.93322610       0.32220430       2.95002318
H        1.94420162       2.16634889       2.74095632
H       -0.41315399       2.22443179       2.76611801
H       -0.53336863       0.26122390       2.97232665
