16
Properties=species:S:1:pos:R:3 energy:=T -17.822956346966=T gnorm:=T 0.000685981590=T xtb:=T 6.7.1=T (edcfbbe)=T pbc="F F F"
C       -0.77630239       1.02225539      -0.37102411
C       -0.04871194      -0.09708925      -0.46468753
C        1.46555120       0.01782805      -0.43271146
C        2.20665962       1.03449644      -0.33062876
C        1.39981894       1.20797130       2.82145834
C        0.12143706       1.18149245       2.79403977
H       -0.50361152       1.92095083      -0.43401546
H       -1.86426422       0.83459925      -0.33922326
H       -0.43808124      -1.06129064      -0.60255910
H        1.88363993      -1.05242310      -0.43416873
H        3.22125221       0.88516935      -0.41924052
H        1.80010395       2.07143818      -0.36781163
H        1.96193245       0.41427751       2.86868435
H        1.95811810       2.18399074       2.74348894
H       -0.57369711       2.18181219       2.82641178
H       -0.59308896       0.41269497       2.91369832
