16
Properties=species:S:1:pos:R:3 energy:=T -17.813369164842=T gnorm:=T 0.000460668107=T xtb:=T 6.7.1=T (edcfbbe)=T pbc="F F F"
C       -0.67742460       1.10461714       0.01752311
C       -0.06998614       0.00372345      -0.25485754
C        1.48286297      -0.05441683      -0.16319682
C        2.18907532       1.04059158      -0.06960825
C        1.37015980       1.19568605       2.30713765
C        0.08206905       1.19236952       2.40095116
H       -0.37927753       1.98544981      -0.00086456
H       -1.85818636       0.97113580       0.15688461
H       -0.48123111      -0.92585586      -0.37783995
H        1.94519816      -1.07870963      -0.47142039
H        3.22246403       0.92363719       0.09889415
H        1.82801372       1.88231289      -0.07397650
H        1.86257328       0.40319138       2.46338779
H        1.93677495       2.09094330       2.35427908
H       -0.52156728       2.16151928       2.19795355
H       -0.43292867       0.35280514       2.52294719
