16
Properties=species:S:1:pos:R:3 energy:=T -17.854084315501=T gnorm:=T 0.000809990318=T xtb:=T 6.7.1=T (edcfbbe)=T pbc="F F F"
C       -0.63728473       1.11987005       0.29141683
C        0.05818147      -0.19186365      -0.26936196
C        1.33951055      -0.13028754      -0.23048513
C        1.99739144       1.00934972       0.30017904
C        1.47891236       1.20632017       2.12724543
C       -0.04250702       1.18894883       1.97728298
H       -0.38608887       2.02472257      -0.09702247
H       -1.71423926       0.81285632       0.32316091
H       -0.54821067      -1.03804839      -0.62351622
H        1.96843892      -0.98552356      -0.51873628
H        3.22697875       0.82942161       0.27272757
H        1.81510197       2.03576730      -0.10790947
H        1.89492265       0.50988135       2.54054309
H        2.02559627       2.24315642       2.26971495
H       -0.40808961       2.16309093       2.23892490
H       -0.54690586       0.44970277       2.55789151
