16
Properties=species:S:1:pos:R:3 energy:=T -17.917372504997=T gnorm:=T 0.000972558229=T xtb:=T 6.7.1=T (edcfbbe)=T pbc="F F F"
C       -0.56768678       1.05486452       0.41659394
C       -0.02520774      -0.22958998      -0.12868532
C        1.49308606      -0.15443289      -0.11475536
C        2.07668695       0.98344380       0.40362430
C        1.51948803       1.21003747       1.93881301
C        0.04742421       1.23144700       1.81119474
H       -0.45452972       1.85295218      -0.32859764
H       -1.66476599       0.83245871       0.47683709
H       -0.38822334      -0.99065850      -0.60938835
H        1.98154478      -1.05505512      -0.61177294
H        3.20119479       0.79347160       0.47779325
H        2.03620433       1.93782791      -0.15114984
H        1.91029992       0.54540388       2.62592861
H        1.89410949       2.35738093       2.15772432
H       -0.43915079       2.17850835       2.19045562
H       -0.38261500       0.59995225       2.50844946
