16
Properties=species:S:1:pos:R:3 energy:=T -17.854084315501=T gnorm:=T 0.000809990318=T xtb:=T 6.7.1=T (edcfbbe)=T pbc="F F F"
C       -0.64387534       0.92646309       0.27863732
C        0.04300702      -0.24284649      -0.37868442
C        1.31460385      -0.12178055      -0.24982705
C        2.11388169       1.02429860       0.29296951
C        1.34774057       1.24985941       1.99867224
C       -0.06881097       1.23588378       2.03908743
H       -0.40057166       1.87853232      -0.19925388
H       -1.61237775       0.82855373       0.26837897
H       -0.47526110      -0.99262189      -0.48378946
H        1.89713914      -0.96966534      -0.55426642
H        3.13255125       0.85444138       0.35931710
H        1.89658987       1.99754106      -0.17501806
H        1.97744109       0.43763413       2.61252789
H        1.84864827       2.12217777       2.34293456
H       -0.53848713       2.19525289       2.29302203
H       -0.48222562       0.40723169       2.64100991
