16
Properties=species:S:1:pos:R:3 energy:=T -17.820713068479=T gnorm:=T 0.000405323679=T xtb:=T 6.7.1=T (edcfbbe)=T pbc="F F F"
C       -0.79641644       0.99643510      -0.08275928
C       -0.07490184      -0.00358422      -0.18931787
C        1.49290600      -0.03199654      -0.30367341
C        2.16552224       1.03888525      -0.11933703
C        1.43604797       1.39891162       2.57274337
C        0.09908436       1.34224906       2.45605794
H       -0.42414521       1.98288168      -0.11911280
H       -1.79608671       0.91076653      -0.01695728
H       -0.36758146      -0.99375960      -0.41339728
H        1.95793048      -0.99143920      -0.45169531
H        3.32478863       0.96841760      -0.10271652
H        1.91825302       2.07236630      -0.12873684
H        1.97131523       0.29937612       2.66800163
H        1.91787821       2.21686033       2.48737130
H       -0.44203232       2.15675210       2.38355492
H       -0.39494364       0.33673005       2.71288473
