16
Properties=species:S:1:pos:R:3 energy:=T -17.854084315501=T gnorm:=T 0.000809990318=T xtb:=T 6.7.1=T (edcfbbe)=T pbc="F F F"
C       -0.63633544       1.00094996       0.34045363
C       -0.00677086      -0.12760770      -0.16031516
C        1.39461075      -0.16227967      -0.24022069
C        2.10160847       1.10033036       0.20441705
C        1.52021444       1.19234472       2.08601540
C       -0.00447672       1.11294784       2.04576463
H       -0.44904529       1.93526984      -0.07970847
H       -1.79451028       0.82559946       0.45099832
H       -0.48409277      -0.93470631      -0.49103071
H        1.90854072      -1.03076418      -0.43586376
H        3.25373097       0.88932813       0.36845322
H        1.84898789       1.92727880      -0.05835273
H        1.92446416       0.36540539       2.53274240
H        1.97240555       2.25061486       2.29033465
H       -0.49883728       2.21394228       2.19866822
H       -0.53205367       0.48091517       2.53265629
