16
Properties=species:S:1:pos:R:3 energy:=T -17.822956346966=T gnorm:=T 0.000685981590=T xtb:=T 6.7.1=T (edcfbbe)=T pbc="F F F"
C       -0.65337952       0.91969866      -0.31385157
C        0.06136693      -0.17417849      -0.49415637
C        1.49187597      -0.09381262      -0.38061856
C        2.30752201       0.98316738      -0.41056541
C        1.24662051       1.27852078       2.77350581
C        0.09373634       1.27998122       2.74905353
H       -0.28939370       2.06163395      -0.27058721
H       -1.91276639       0.89388441      -0.38593625
H       -0.47037112      -1.10963725      -0.41810681
H        1.93042843      -1.02971370      -0.46857012
H        3.38848666       0.92583002      -0.50349161
H        1.81754271       2.00045755      -0.26431562
H        1.94787937       0.34423754       2.87048461
H        2.00098020       2.15290297       2.70702702
H       -0.53508581       2.20680110       2.71081849
H       -0.58395683       0.39108346       2.86842636
