16
Properties=species:S:1:pos:R:3 energy:=T -17.822313566467=T gnorm:=T 0.000397917922=T xtb:=T 6.7.1=T (edcfbbe)=T pbc="F F F"
C       -0.75641854       1.00550508      -0.21813393
C        0.01211315       0.04637812      -0.39509489
C        1.37076468      -0.12237761      -0.41218451
C        2.28368805       1.05472430      -0.28294106
C        1.31337382       1.23850573       2.72748755
C       -0.08668998       1.28946054       2.58493206
H       -0.31195473       1.94207591      -0.18206674
H       -1.93086589       0.86721577      -0.13859560
H       -0.40279050      -1.06511263      -0.45793270
H        1.81078986      -1.06464089      -0.40941035
H        3.30896298       0.91829657      -0.28351221
H        1.83824306       2.00214707      -0.09101133
H        2.07213597       0.34152092       2.68736899
H        1.96227504       2.13404469       2.53266365
H       -0.49941355       2.10889453       2.61061156
H       -0.50029353       0.36391477       2.72109364
