16
Properties=species:S:1:pos:R:3 energy:=T -17.820307793211=T gnorm:=T 0.000596792534=T xtb:=T 6.7.1=T (edcfbbe)=T pbc="F F F"
C       -0.77330507       1.09533153       0.16406245
C       -0.01265894      -0.09137942      -0.32613009
C        1.52904693      -0.05662528      -0.36033321
C        2.16697060       1.00865280       0.25436115
C        1.38238434       1.10806500       2.15577520
C        0.01769034       1.19945782       2.04559359
H       -0.29930517       2.09987644      -0.18571952
H       -1.68129153       0.91823867       0.38878017
H       -0.45484214      -1.02720232      -0.36908242
H        1.97288485      -1.04738086      -0.38882935
H        3.18426245       0.85737010       0.37292096
H        1.77314493       1.98595346      -0.07349861
H        1.87234489       0.27509371       2.48076535
H        1.92724029       2.15563633       2.36436455
H       -0.50682903       2.17667601       2.33834163
H       -0.53434152       0.35410078       2.45865908
