16
Properties=species:S:1:pos:R:3 energy:=T -17.822956346966=T gnorm:=T 0.000685981590=T xtb:=T 6.7.1=T (edcfbbe)=T pbc="F F F"
C       -0.77155716       0.98871412      -0.42415412
C       -0.01906038      -0.03452077      -0.32918507
C        1.43005104      -0.11390606      -0.32743734
C        2.20154265       1.10849293      -0.35090445
C        1.34818553       1.31755533       2.90936718
C        0.00402452       1.34676151       2.80904011
H       -0.30637132       1.98418049      -0.39623600
H       -1.82370887       0.96282307      -0.25009833
H       -0.36054401      -1.01399870      -0.45350549
H        1.89167541      -1.06429989      -0.48364133
H        3.30526696       0.78647374      -0.34750459
H        1.85041818       2.13388353      -0.27756036
H        1.93961545       0.38634916       2.84376934
H        1.93464791       2.08202930       2.81237922
H       -0.46511852       2.11720810       2.73634224
H       -0.44577971       0.38283010       2.92547970
