16
Properties=species:S:1:pos:R:3 energy:=T -17.899836407102=T gnorm:=T 0.000635713530=T xtb:=T 6.7.1=T (edcfbbe)=T pbc="F F F"
C       -0.65875866       1.04489871       0.33844341
C        0.07088311      -0.18617123      -0.18470363
C        1.50141004      -0.14597441      -0.19256932
C        2.08559219       0.95415447       0.43627129
C        1.42838845       1.24366357       1.93406341
C       -0.04101494       1.39769909       1.81239665
H       -0.43238828       1.94729269      -0.25670997
H       -1.75187325       0.86146067       0.54974690
H       -0.55014378      -1.09520305      -0.50628501
H        2.05269539      -1.02834246      -0.67681241
H        3.26504428       0.82781230       0.52279942
H        1.91962522       1.88901503      -0.22150916
H        1.97496117       0.57667846       2.44400056
H        1.85635238       2.34383383       2.22022937
H       -0.50949880       2.24891931       2.23408722
H       -0.43129784       0.47421673       2.54225821
