16
Properties=species:S:1:pos:R:3 energy:=T -17.820307793211=T gnorm:=T 0.000596792534=T xtb:=T 6.7.1=T (edcfbbe)=T pbc="F F F"
C       -0.74006083       0.99578051       0.25592494
C        0.02524416      -0.11782103      -0.19803537
C        1.45291814      -0.07871752      -0.31980831
C        2.04318599       0.95578171       0.12879976
C        1.42128194       1.24238971       2.18679213
C        0.04892435       1.23395815       2.08984665
H       -0.45458130       1.98395524      -0.14973927
H       -1.78033737       0.92956003       0.19419392
H       -0.54565297      -1.02406187      -0.41706722
H        1.90583872      -0.98682417      -0.43792898
H        3.14634558       0.94918706       0.38853674
H        1.74863412       2.08885974      -0.00474685
H        2.04335076       0.29152102       2.63101182
H        1.96041962       2.13626850       2.29400284
H       -0.44576270       2.15525340       2.29731308
H       -0.40041707       0.29775905       2.44086266
