16
Properties=species:S:1:pos:R:3 energy:=T -17.854084315501=T gnorm:=T 0.000809990318=T xtb:=T 6.7.1=T (edcfbbe)=T pbc="F F F"
C       -0.62419377       1.06297829       0.38385505
C        0.13994900      -0.12256508      -0.26003571
C        1.42930709      -0.13897802      -0.16065031
C        2.18388946       0.95858708       0.21794872
C        1.54884778       1.28529303       2.03238185
C        0.07184468       1.24432052       2.02959957
H       -0.41255764       1.84596293      -0.12055662
H       -1.79918081       0.85534050       0.32103184
H       -0.44808598      -1.03082745      -0.50944439
H        1.86206064      -1.03196728      -0.59649211
H        3.21566137       0.91093177       0.36451253
H        1.97636657       1.99299299      -0.13854400
H        1.93243873       0.42158585       2.61827681
H        1.99406163       2.13545598       2.36079878
H       -0.42856493       2.26924766       2.32616807
H       -0.52777127       0.36392693       2.66903568
