16
Properties=species:S:1:pos:R:3 energy:=T -17.813369164842=T gnorm:=T 0.000460668107=T xtb:=T 6.7.1=T (edcfbbe)=T pbc="F F F"
C       -0.60485024       1.11940874      -0.08708139
C       -0.03825571      -0.02094280      -0.23611326
C        1.49412992      -0.06567502      -0.25649207
C        2.22753544       1.01120028       0.09436712
C        1.26622710       1.27357905       2.24852708
C        0.12459711       1.22110675       2.25737322
H       -0.29703873       1.95671362      -0.06638382
H       -1.88419934       0.94183674       0.15613267
H       -0.40066131      -1.03346542      -0.31569676
H        1.93404116      -1.03049964      -0.34457312
H        3.32322828       0.92271561       0.11105061
H        1.77999195       2.01722911      -0.06563016
H        2.02517186       0.31005853       2.52436288
H        1.91669105       2.17420518       2.33290249
H       -0.52251527       2.27539296       2.33165223
H       -0.38449565       0.39283417       2.45591962
