16
Properties=species:S:1:pos:R:3 energy:=T -17.817532948576=T gnorm:=T 0.000396279826=T xtb:=T 6.7.1=T (edcfbbe)=T pbc="F F F"
C       -0.74932596       1.03075249       0.01821231
C       -0.01557188      -0.16717735      -0.30347369
C        1.45705214      -0.05568275      -0.20732280
C        2.23329470       1.06008878      -0.12102888
C        1.44977346       1.37350001       2.46659452
C        0.08776259       1.25653154       2.52769334
H       -0.39610935       1.99926946       0.00067594
H       -1.77236644       0.90903511       0.02038726
H       -0.47478457      -1.02470884      -0.38834510
H        1.85931150      -1.03322026      -0.32755611
H        3.22893661       0.92089112       0.04191127
H        1.74580802       2.01697781      -0.09090524
H        2.03224598       0.48089729       2.67350816
H        1.95384692       2.20472031       2.38243509
H       -0.49088601       2.25339912       2.29569373
H       -0.43037755       0.33867278       2.63654907
