16
Properties=species:S:1:pos:R:3 energy:=T -17.822956346966=T gnorm:=T 0.000685981590=T xtb:=T 6.7.1=T (edcfbbe)=T pbc="F F F"
C       -0.76149666       0.96201118      -0.28858600
C       -0.11959676      -0.06635811      -0.26699851
C        1.43846623      -0.06693405      -0.36031737
C        2.19703656       1.00452448      -0.29503549
C        1.40489178       1.29010423       2.80208049
C        0.09611459       1.27094477       2.91182668
H       -0.33783549       1.98869185      -0.46490300
H       -1.80568673       0.96167629      -0.41235167
H       -0.56964649      -1.11876100      -0.38510240
H        1.85337477      -1.07726365      -0.42802001
H        3.39367564       0.91465244      -0.36269755
H        1.81851039       2.10268315      -0.25128553
H        1.95822972       0.27272391       2.85798737
H        2.00051044       2.13304225       2.79366846
H       -0.47328320       2.19473486       2.77915434
H       -0.46371444       0.30566742       2.88624173
