16
Properties=species:S:1:pos:R:3 energy:=T -17.812259918842=T gnorm:=T 0.000930443810=T xtb:=T 6.7.1=T (edcfbbe)=T pbc="F F F"
C       -0.78564579       1.03244161       0.04213939
C        0.00358666      -0.17071887      -0.34106293
C        1.44230550      -0.00777210      -0.22456220
C        2.16600627       1.00775782       0.02353967
C        1.43473229       1.21263245       2.29641355
C        0.16871336       1.22598167       2.16611431
H       -0.36712677       1.92622137      -0.09686861
H       -1.69010975       0.96035942       0.08883729
H       -0.42469110      -0.94342557      -0.40839317
H        1.89332827      -1.04239442      -0.36847879
H        3.28062398       1.01959016       0.25812380
H        1.85721923       2.10094896       0.01827543
H        1.86557596       0.32377169       2.50467200
H        1.94141518       2.20574730       2.27026069
H       -0.55248673       2.23880184       2.33383577
H       -0.47686522       0.38932992       2.55105890
