16
Properties=species:S:1:pos:R:3 energy:=T -17.820307793211=T gnorm:=T 0.000596792534=T xtb:=T 6.7.1=T (edcfbbe)=T pbc="F F F"
C       -0.60722310       1.05527132       0.15964768
C       -0.03288273      -0.07467116      -0.32705824
C        1.46566478      -0.08847917      -0.32973268
C        2.19406460       1.07093740       0.12382500
C        1.50318763       1.20271485       2.13432913
C        0.04233586       1.17604921       2.12654880
H       -0.33003789       2.10621992      -0.00233561
H       -1.75496569       1.04121781       0.26897112
H       -0.45425536      -0.96592856      -0.40711190
H        2.08847830      -1.00351163      -0.49462411
H        3.28643310       0.92245247       0.25362805
H        1.61488329       2.07514864      -0.04233729
H        1.99713431       0.40013270       2.60502814
H        1.95048387       2.20711763       2.26463559
H       -0.50394496       2.21414256       2.33128374
H       -0.55853956       0.36391824       2.49497560
