16
Properties=species:S:1:pos:R:3 energy:=T -17.854084315501=T gnorm:=T 0.000809990318=T xtb:=T 6.7.1=T (edcfbbe)=T pbc="F F F"
C       -0.74455019       0.90574636       0.18284284
C        0.03963645      -0.15645630      -0.27787758
C        1.41220047      -0.26292944      -0.21793865
C        2.04466236       0.96913036       0.23427252
C        1.40009563       1.18645754       1.98689067
C        0.00108496       1.30191233       2.07930978
H       -0.44381925       1.91524786      -0.22574454
H       -1.70132116       0.76908354       0.43779968
H       -0.51953413      -1.07286416      -0.49038818
H        2.02197863      -1.00665304      -0.44738587
H        3.20542301       0.96160234       0.43878007
H        1.84985862       2.04648216      -0.16404042
H        1.92914567       0.37876811       2.54424909
H        1.97475349       2.13508552       2.33673733
H       -0.43840291       2.22884022       2.16885261
H       -0.46036441       0.47132337       2.51640868
