16
Properties=species:S:1:pos:R:3 energy:=T -17.899836407102=T gnorm:=T 0.000635713530=T xtb:=T 6.7.1=T (edcfbbe)=T pbc="F F F"
C       -0.67974487       1.01701536       0.30282547
C        0.05090083      -0.17528077      -0.11471546
C        1.42480802      -0.17283969      -0.16669250
C        2.14627585       1.06835742       0.39201486
C        1.60954818       1.38371498       1.93651573
C       -0.04621061       1.35250230       1.97434560
H       -0.45818176       1.80903422      -0.32067389
H       -1.69370398       0.89044864       0.51672047
H       -0.58791766      -0.94022022      -0.59463661
H        1.99724007      -0.98214814      -0.61237166
H        3.14709874       0.69808069       0.40041473
H        1.79989284       1.93878806      -0.19310207
H        1.95779959       0.52385541       2.51572513
H        1.93003272       2.22204309       2.28118178
H       -0.41514404       2.18173499       2.24005072
H       -0.42232751       0.47911065       2.61949758
