16
Properties=species:S:1:pos:R:3 energy:=T -17.813369164842=T gnorm:=T 0.000460668107=T xtb:=T 6.7.1=T (edcfbbe)=T pbc="F F F"
C       -0.66737283       0.97468246      -0.00279683
C        0.06512270      -0.01796847      -0.30294956
C        1.39319242      -0.13915726      -0.31927907
C        2.07582303       1.05357947       0.00021886
C        1.42790034       1.32879378       2.37034230
C        0.00846659       1.27865960       2.36958765
H       -0.35726050       1.96432314      -0.01633918
H       -1.86920314       1.01729109       0.00514999
H       -0.51848288      -1.03837167      -0.39086867
H        1.94128727      -1.01119575      -0.39020318
H        3.31588468       0.83610151       0.12587768
H        1.75390897       2.01884378       0.00025051
H        1.91683485       0.30225268       2.53600536
H        1.98445144       2.11822082       2.41146993
H       -0.38099501       2.07898803       2.32422045
H       -0.36669136       0.37381166       2.50732257
