16
Properties=species:S:1:pos:R:3 energy:=T -17.822956346966=T gnorm:=T 0.000685981590=T xtb:=T 6.7.1=T (edcfbbe)=T pbc="F F F"
C       -0.82189073       1.14504974      -0.29939385
C       -0.07677779      -0.06269314      -0.36028545
C        1.44830733      -0.01952731      -0.40591793
C        2.29372279       1.10519220      -0.40141317
C        1.40748179       1.23467319       2.83236028
C       -0.00730488       1.22645444       2.80941855
H       -0.31812563       2.08475982      -0.41000026
H       -1.90558941       0.96164031      -0.49794415
H       -0.48097687      -1.05622480      -0.35224816
H        1.96703906      -1.07253231      -0.46757203
H        3.30146616       1.02384456      -0.38695910
H        1.83034350       2.02853070      -0.32467879
H        1.95001812       0.27861770       2.90523094
H        1.93379943       2.25965026       2.78573927
H       -0.49697796       2.22435623       2.71530321
H       -0.41939188       0.35729144       2.94744537
