16
Properties=species:S:1:pos:R:3 energy:=T -17.899836407102=T gnorm:=T 0.000635713530=T xtb:=T 6.7.1=T (edcfbbe)=T pbc="F F F"
C       -0.54775583       0.97269761       0.33716245
C       -0.06218052      -0.17313398      -0.22888469
C        1.27195403      -0.14838214      -0.16811682
C        2.07544226       0.97269681       0.30066624
C        1.53307752       1.20308990       1.92080153
C        0.09702460       1.29578200       1.96698070
H       -0.46043419       1.83972876      -0.19851674
H       -1.69329475       0.77788525       0.48247734
H       -0.42726945      -0.94732742      -0.65188841
H        1.91336926      -1.10561593      -0.49480178
H        3.22316809       0.87996876       0.41064896
H        1.85309393       1.91371049      -0.19130041
H        1.84547764       0.50810307       2.59675666
H        1.92004751       2.18713101       2.11523368
H       -0.45178144       2.25838101       2.22454993
H       -0.45135872       0.45913469       2.60113755
