16
Properties=species:S:1:pos:R:3 energy:=T -17.812259918842=T gnorm:=T 0.000930443810=T xtb:=T 6.7.1=T (edcfbbe)=T pbc="F F F"
C       -0.74509594       0.88641054       0.07947254
C        0.02673240      -0.17286608      -0.24069627
C        1.50050453      -0.05652011      -0.17637695
C        2.29390106       0.94028342       0.14308701
C        1.43875674       1.25544320       2.32024497
C        0.01295995       1.18908442       2.20459065
H       -0.36337082       2.01008932      -0.11804927
H       -1.83965228       0.98424518       0.17835727
H       -0.44003612      -1.14558417      -0.43757580
H        1.89873197      -1.01935598      -0.42461436
H        3.30226271       0.94252035       0.18412374
H        1.78466826       2.06306866      -0.05367279
H        2.03413238       0.36209892       2.49533958
H        1.96789221       2.18346141       2.35926128
H       -0.43303751       2.17400621       2.35015131
H       -0.48267583       0.41417198       2.48348371
