16
Properties=species:S:1:pos:R:3 energy:=T -17.820307793211=T gnorm:=T 0.000596792534=T xtb:=T 6.7.1=T (edcfbbe)=T pbc="F F F"
C       -0.67729491       0.97834035       0.16398531
C        0.06956348      -0.15593045      -0.32464182
C        1.37474965      -0.04233739      -0.19256811
C        2.18434495       1.01024113       0.23547147
C        1.35556320       1.29884127       2.11808635
C       -0.11068608       1.35921699       2.23521245
H       -0.37470644       2.02519990      -0.10166096
H       -1.73440246       0.86887212       0.23578776
H       -0.45207664      -1.00615044      -0.36139773
H        1.95080527      -0.89465174      -0.46180529
H        3.22335224       0.84619606       0.20580750
H        1.86024173       1.96693225      -0.06258879
H        1.94696636       0.28790871       2.48745245
H        1.92622821       2.12649844       2.34783062
H       -0.44896705       2.12180437       2.26075859
H       -0.46542161       0.33745278       2.55962413
