16
Properties=species:S:1:pos:R:3 energy:=T -17.813369164842=T gnorm:=T 0.000460668107=T xtb:=T 6.7.1=T (edcfbbe)=T pbc="F F F"
C       -0.64199513       1.00036501       0.01796909
C        0.06340418      -0.03728436      -0.30301688
C        1.44894645      -0.09676715      -0.24164426
C        2.24434287       1.01312868       0.14884623
C        1.30224790       1.21696343       2.41778550
C        0.03618201       1.12956733       2.39763408
H       -0.28798206       1.93268921       0.03566774
H       -1.85732995       0.85462893       0.11309548
H       -0.49675227      -1.09814865      -0.40592014
H        1.86561157      -1.02403129      -0.38399997
H        3.30346082       0.91135276       0.03761298
H        1.70229571       1.99342396       0.08446659
H        2.01390006       0.29035736       2.55350158
H        1.88966351       2.21421983       2.28154174
H       -0.45071614       2.18924844       2.28831359
H       -0.47466311       0.26314365       2.48850027
