16
Properties=species:S:1:pos:R:3 energy:=T -17.812259918842=T gnorm:=T 0.000930443810=T xtb:=T 6.7.1=T (edcfbbe)=T pbc="F F F"
C       -0.74801331       0.99761113       0.03014887
C        0.03768958      -0.05256846      -0.28379322
C        1.41096993      -0.27727275      -0.28045985
C        2.05990574       1.03378891       0.14124255
C        1.42584844       1.20515850       2.24833999
C        0.05239550       1.19581410       2.22468381
H       -0.36791366       2.08615871      -0.02361439
H       -1.71495983       0.93166963       0.18724504
H       -0.47516661      -0.99439850      -0.33767523
H        1.94924970      -1.06096325      -0.43179910
H        3.33816590       0.92994357       0.16595428
H        1.86959592       2.08029739       0.00857106
H        1.93702545       0.46973029       2.50824298
H        1.99719239       2.13926838       2.20973038
H       -0.57332063       2.17316211       2.31552685
H       -0.50450734       0.26328239       2.40078204
