16
Properties=species:S:1:pos:R:3 energy:=T -17.820307793211=T gnorm:=T 0.000596792534=T xtb:=T 6.7.1=T (edcfbbe)=T pbc="F F F"
C       -0.53941209       1.06990524       0.15697407
C        0.03736105      -0.12352268      -0.32649895
C        1.37496192      -0.10087016      -0.30298069
C        2.17620076       1.00897930       0.14898275
C        1.37515480       1.30094199       2.17736529
C        0.12284652       1.25935862       2.22558627
H       -0.33280584       2.05153188       0.04234592
H       -1.79980137       1.00435090       0.35483356
H       -0.45594325      -0.98027495      -0.36147200
H        1.91373241      -0.99732152      -0.46786008
H        3.17583706       0.91566319       0.26432262
H        1.79794641       2.03907811      -0.16160595
H        2.04966070       0.40074392       2.54219609
H        1.93519969       2.14756697       2.33586148
H       -0.46248420       2.06762015       2.34557009
H       -0.33358584       0.24979000       2.55575548
