16
Properties=species:S:1:pos:R:3 energy:=T -17.820713068479=T gnorm:=T 0.000405323679=T xtb:=T 6.7.1=T (edcfbbe)=T pbc="F F F"
C       -0.82874162       0.94842544      -0.12612025
C       -0.11960935      -0.11802377      -0.40625281
C        1.39250194      -0.07488144      -0.28545733
C        2.30051849       1.05811226      -0.06682734
C        1.42991929       1.22010136       2.60134137
C        0.03959883       1.21053635       2.62846708
H       -0.31172029       2.01481997      -0.03650803
H       -1.78112097       0.83571939      -0.12464795
H       -0.53407612      -1.03270056      -0.43927135
H        2.00867341      -1.00670724      -0.44850970
H        3.30031825       0.84559334      -0.11587442
H        1.86205488       2.01763460      -0.21248150
H        1.93865465       0.37611080       2.65176745
H        2.03904543       2.07686943       2.49617449
H       -0.54309338       2.17400270       2.48842314
H       -0.45300890       0.30485731       2.64378099
