16
Properties=species:S:1:pos:R:3 energy:=T -17.820713068479=T gnorm:=T 0.000405323679=T xtb:=T 6.7.1=T (edcfbbe)=T pbc="F F F"
C       -0.81151970       1.05091567      -0.12695096
C        0.07196531       0.01434065      -0.32195141
C        1.37891588      -0.04078579      -0.20443038
C        2.26967390       1.02153748      -0.00785247
C        1.33721051       1.30436199       2.50015223
C        0.07787137       1.25929306       2.61574810
H       -0.41170747       1.97434038      -0.17055070
H       -1.80814213       0.90323398      -0.09151111
H       -0.51266838      -1.05703154      -0.33407546
H        1.91353720      -1.00241352      -0.36236715
H        3.28557664       0.84220362      -0.06027597
H        1.83927410       2.05852608      -0.19383639
H        1.87258412       0.22762758       2.58676913
H        2.02445311       2.19626049       2.46362821
H       -0.48940794       2.20709378       2.44878391
H       -0.47239120       0.35420282       2.51414783
