16
Properties=species:S:1:pos:R:3 energy:=T -17.820307793211=T gnorm:=T 0.000596792534=T xtb:=T 6.7.1=T (edcfbbe)=T pbc="F F F"
C       -0.63072048       1.05927522       0.25749996
C        0.06129719      -0.01507655      -0.33803045
C        1.34827912      -0.00367331      -0.20158878
C        2.16755751       1.04088717       0.16773427
C        1.39740798       1.30415046       2.18841897
C        0.06265407       1.24076654       2.20963611
H       -0.29307180       2.05698821      -0.15416398
H       -1.71194650       1.06590913       0.24323587
H       -0.48363414      -0.96918262      -0.37205855
H        1.98067769      -1.10602024      -0.39692281
H        3.14520561       0.90167955       0.30138830
H        1.77446398       2.06050935       0.08127556
H        1.99258809       0.38208761       2.45686011
H        1.91812168       2.09404067       2.27927929
H       -0.54270346       2.11609840       2.29692875
H       -0.53478882       0.26530537       2.43147131
