16
Properties=species:S:1:pos:R:3 energy:=T -17.854084315501=T gnorm:=T 0.000809990318=T xtb:=T 6.7.1=T (edcfbbe)=T pbc="F F F"
C       -0.65004015       0.98255730       0.25351894
C        0.06038294      -0.12698369      -0.22587749
C        1.37884147      -0.17738671      -0.20666620
C        2.03642870       0.97458082       0.34249190
C        1.32175079       1.22963268       2.08324683
C       -0.08743120       1.40766702       1.90619065
H       -0.30766203       2.04599927      -0.12205615
H       -1.73975812       0.90823361       0.31645479
H       -0.44726532      -1.08731801      -0.52516062
H        2.01509805      -1.08704372      -0.52900076
H        3.20640031       0.81673716       0.42848671
H        1.87413244       1.87989443      -0.17626922
H        1.88211947       0.39742102       2.56538397
H        1.89064980       2.26443739       2.26043221
H       -0.40583653       2.21014843       2.34490161
H       -0.48355660       0.40587681       2.49898251
