16
Properties=species:S:1:pos:R:3 energy:=T -17.822313566467=T gnorm:=T 0.000397917922=T xtb:=T 6.7.1=T (edcfbbe)=T pbc="F F F"
C       -0.81928633       0.94372826      -0.24329037
C       -0.02755879      -0.04821506      -0.33535089
C        1.36941506      -0.05939364      -0.42510329
C        2.19917826       0.98757367      -0.36655526
C        1.39986588       1.26913509       2.63649503
C        0.04780219       1.23397167       2.58161382
H       -0.39016559       1.96731207      -0.15942359
H       -1.92456635       0.93949197      -0.20908101
H       -0.45970639      -1.07135316      -0.37060354
H        1.80860591      -1.01101234      -0.39132604
H        3.33282414       0.94942232      -0.26251519
H        1.82467346       2.04710391      -0.13671579
H        1.97811689       0.24788573       2.76772632
H        2.04445649       2.23686978       2.59125419
H       -0.60048372       2.23239684       2.56570864
H       -0.66412167       0.37476235       2.63159933
