16
Properties=species:S:1:pos:R:3 energy:=T -17.917372504997=T gnorm:=T 0.000972558229=T xtb:=T 6.7.1=T (edcfbbe)=T pbc="F F F"
C       -0.64013909       0.97435447       0.36365844
C        0.00803301      -0.16825070      -0.27638495
C        1.40395007      -0.16976839      -0.21949745
C        2.05586797       0.91924674       0.50455564
C        1.42357444       1.37897636       1.91898368
C       -0.04564158       1.23277062       1.94269797
H       -0.38064188       1.83886653      -0.21310691
H       -1.65289775       0.84194320       0.61123493
H       -0.53631934      -0.96910231      -0.63507476
H        2.08904414      -1.03673314      -0.68865101
H        3.17295885       0.81671225       0.60621142
H        1.92526874       1.88942310      -0.16369008
H        1.96655384       0.51511149       2.60116828
H        1.92315544       2.23838643       2.21472590
H       -0.42344514       2.20560198       2.27504180
H       -0.48617728       0.58259558       2.59678308
