16
Properties=species:S:1:pos:R:3 energy:=T -17.813369164842=T gnorm:=T 0.000460668107=T xtb:=T 6.7.1=T (edcfbbe)=T pbc="F F F"
C       -0.80633498       1.06758216       0.04500449
C        0.01083001      -0.03448057      -0.26065097
C        1.51261598      -0.08541065      -0.29889994
C        2.17214062       1.11581782       0.08088265
C        1.35129872       1.21463565       2.27089592
C        0.06473839       1.24439496       2.43367452
H       -0.42107220       2.06577427       0.01065482
H       -1.82910046       0.93316565       0.09683502
H       -0.46235490      -0.97235418      -0.46396984
H        2.00207829      -1.04719167      -0.30005574
H        3.27909197       1.00833960       0.15454536
H        1.84663075       2.01324370      -0.05791883
H        1.99709618       0.37102153       2.60809678
H        1.85633305       2.13974825       2.36473556
H       -0.56675604       2.13818736       2.42201621
H       -0.41768169       0.28494582       2.57173441
