16
Properties=species:S:1:pos:R:3 energy:=T -17.854084315501=T gnorm:=T 0.000809990318=T xtb:=T 6.7.1=T (edcfbbe)=T pbc="F F F"
C       -0.51832220       1.02238228       0.21951980
C       -0.02048914      -0.18425887      -0.20101983
C        1.45541021      -0.15146468      -0.24373001
C        2.10841241       0.93633859       0.34275886
C        1.49220854       1.42728822       1.99715365
C       -0.00711035       1.32432660       2.03026703
H       -0.47508964       1.90042853      -0.16507755
H       -1.70556756       0.88280455       0.42987346
H       -0.42679868      -1.00589763      -0.50861524
H        1.94488121      -0.99115942      -0.44982006
H        3.20144040       0.91838433       0.34456099
H        1.76440066       1.89707927      -0.12419472
H        1.95295003       0.53583565       2.56486395
H        1.98495604       2.29787759       2.36285480
H       -0.49827369       2.20057503       2.30703281
H       -0.51806483       0.46387324       2.62752460
