16
Properties=species:S:1:pos:R:3 energy:=T -17.854084315501=T gnorm:=T 0.000809990318=T xtb:=T 6.7.1=T (edcfbbe)=T pbc="F F F"
C       -0.79879857       1.05668020       0.38616205
C        0.06504736      -0.13836943      -0.20724051
C        1.50791150      -0.20331414      -0.24220551
C        2.11780453       1.03906479       0.26739620
C        1.50473531       1.24368565       2.04878941
C       -0.03543882       1.23032060       2.03826162
H       -0.39320945       1.89669852      -0.08440707
H       -1.73528048       0.81208531       0.42613063
H       -0.53257125      -0.99855170      -0.51129979
H        1.97515722      -1.01730668      -0.54124809
H        3.19979385       1.00217585       0.24128229
H        1.85937265       1.98598346      -0.23216427
H        1.84793712       0.55285693       2.54060493
H        2.04446594       2.24204698       2.30275476
H       -0.43247708       2.24777691       2.36414620
H       -0.43009016       0.44122326       2.57107509
