16
Properties=species:S:1:pos:R:3 energy:=T -17.822885844677=T gnorm:=T 0.000351651283=T xtb:=T 6.7.1=T (edcfbbe)=T pbc="F F F"
C       -0.69894775       0.95129704      -0.24828671
C        0.09882351      -0.05106380      -0.34447866
C        1.57708074      -0.07806870      -0.41236921
C        2.16459475       1.00739913      -0.22473438
C        1.45007485       1.20845555       2.71283791
C        0.04688636       1.28156995       2.75134409
H       -0.36601375       2.02163415      -0.28159140
H       -1.85016358       0.93126904      -0.31604208
H       -0.41882659      -0.93612910      -0.39304837
H        1.92196749      -1.14677758      -0.40511937
H        3.20250130       0.83560311      -0.26045469
H        1.89053612       1.99518754      -0.36518398
H        1.94220302       0.31371631       2.87704487
H        2.09925605       2.18720993       2.64366387
H       -0.56486539       2.17106294       2.67935799
H       -0.56241704       0.36082607       2.77117884
