16
Properties=species:S:1:pos:R:3 energy:=T -17.822956346966=T gnorm:=T 0.000685981590=T xtb:=T 6.7.1=T (edcfbbe)=T pbc="F F F"
C       -0.75525082       1.02525237      -0.28223368
C        0.07013042      -0.10201467      -0.41104710
C        1.38532390       0.03130130      -0.37505972
C        2.32891746       0.98425438      -0.47476283
C        1.48372917       1.27305434       2.83121411
C        0.08020426       1.30571046       2.85489297
H       -0.47602996       2.06784239      -0.34740940
H       -1.87685663       1.01798855      -0.30210434
H       -0.46813352      -1.15919908      -0.43186099
H        1.95001082      -1.05408466      -0.51517386
H        3.27241712       0.84146247      -0.34384364
H        1.90038808       2.06420745      -0.35944984
H        1.97792530       0.39045036       2.87579438
H        1.95647975       2.30262614       2.75154627
H       -0.44300439       2.15120042       2.74188705
H       -0.59550366       0.35619068       2.97662558
