16
Properties=species:S:1:pos:R:3 energy:=T -17.812259918842=T gnorm:=T 0.000930443810=T xtb:=T 6.7.1=T (edcfbbe)=T pbc="F F F"
C       -0.62009319       0.99377029       0.02243151
C        0.03346572      -0.07750449      -0.35351615
C        1.33418651      -0.12733171      -0.18643736
C        2.30538381       1.06400631       0.15621801
C        1.37441100       1.22268729       2.27824115
C       -0.01385906       1.16019388       2.26553577
H       -0.33572907       1.94372422       0.00376724
H       -1.78900595       1.01626158       0.18266280
H       -0.48575163      -1.01276703      -0.39787544
H        1.88945911      -1.04901948      -0.33478935
H        3.28525038       1.03443121       0.06706646
H        1.75685946       1.98818196      -0.01093659
H        1.92945647       0.29674151       2.53884331
H        1.97734706       2.06941623       2.38396715
H       -0.42687359       2.11001626       2.34950227
H       -0.54079437       0.40900721       2.47031348
