16
Properties=species:S:1:pos:R:3 energy:=T -17.822313566467=T gnorm:=T 0.000397917922=T xtb:=T 6.7.1=T (edcfbbe)=T pbc="F F F"
C       -0.82131883       0.98859503      -0.29043873
C       -0.06994696      -0.06685922      -0.28083719
C        1.36685555      -0.06367944      -0.37496279
C        2.18051433       1.05972217      -0.25920545
C        1.48573863       1.21112076       2.67082704
C        0.06230014       1.21272216       2.68319024
H       -0.38159652       2.04141344      -0.16847624
H       -1.91049463       0.91742507      -0.21549490
H       -0.39135470      -1.09755275      -0.41005928
H        1.81449696      -1.00188326      -0.47403729
H        3.20289373       0.92008050      -0.15078197
H        1.74845824       1.93756680      -0.21123877
H        1.89489315       0.37273805       2.68207532
H        1.92172290       2.20498034       2.52917461
H       -0.46944743       2.10953686       2.50114738
H       -0.60700134       0.46376116       2.71199922
