16
Properties=species:S:1:pos:R:3 energy:=T -17.822956346966=T gnorm:=T 0.000685981590=T xtb:=T 6.7.1=T (edcfbbe)=T pbc="F F F"
C       -0.82615396       0.96615517      -0.34795209
C        0.06170073      -0.11607139      -0.46626380
C        1.52807831      -0.12195447      -0.33870087
C        2.26048670       1.05425437      -0.25226723
C        1.43302689       1.31256899       2.77007747
C        0.03658617       1.30491580       2.91235708
H       -0.30111801       2.13792633      -0.29806344
H       -1.83744722       0.97412606      -0.35549309
H       -0.45174142      -1.11009181      -0.38391647
H        1.85593047      -1.01959610      -0.52376497
H        3.38282695       0.85606425      -0.30765293
H        1.75967358       1.97799747      -0.24774193
H        1.91728767       0.36155449       2.87828932
H        1.83127429       2.19479235       2.76448548
H       -0.55953907       2.21022327       2.69324852
H       -0.55225379       0.35807216       2.86652054
