16
Properties=species:S:1:pos:R:3 energy:=T -17.877429643677=T gnorm:=T 0.000779366901=T xtb:=T 6.7.1=T (edcfbbe)=T pbc="F F F"
C       -0.67560196       0.97916439       0.27406599
C        0.07433184      -0.06686000      -0.23387169
C        1.39206667      -0.17928025      -0.07984775
C        2.21627194       1.02925324       0.34852353
C        1.43627987       1.27415902       2.00230353
C       -0.00421791       1.23353969       1.94513745
H       -0.39556171       1.94896360      -0.31460160
H       -1.71986761       0.93014697       0.37704706
H       -0.48433100      -1.10671350      -0.49314154
H        1.90027878      -1.09470690      -0.55963465
H        3.32824284       0.82146241       0.34162810
H        1.91857484       1.94433935      -0.09738395
H        1.83482473       0.37837545       2.54433451
H        1.93743408       2.25437225       2.33351313
H       -0.53535697       2.18622796       2.26335446
H       -0.39333188       0.49787113       2.53817314
