16
Properties=species:S:1:pos:R:3 energy:=T -17.834185856637=T gnorm:=T 0.000899460021=T xtb:=T 6.7.1=T (edcfbbe)=T pbc="F F F"
C       -0.69764958       0.97322297       0.24089182
C        0.01991521      -0.15905239      -0.30438716
C        1.41576034       0.03161473      -0.38087328
C        2.13003932       1.00326402       0.25683202
C        1.43239008       1.11487223       2.16807863
C       -0.04167115       1.24238645       2.02544582
H       -0.40866143       1.96296039      -0.09428683
H       -1.68850686       0.88568833       0.34155686
H       -0.50488884      -1.02244072      -0.46305042
H        1.98556151      -1.06093595      -0.47837427
H        3.21216244       0.92202301       0.27255291
H        1.90937709       1.96460786      -0.09980197
H        1.94717601       0.45276415       2.42227150
H        2.04843974       2.17235593       2.24780116
H       -0.46587444       2.30326549       2.33974108
H       -0.53463168       0.36353756       2.60864508
