16
Properties=species:S:1:pos:R:3 energy:=T -17.822687320067=T gnorm:=T 0.000356470142=T xtb:=T 6.7.1=T (edcfbbe)=T pbc="F F F"
C       -0.74203602       1.05131219      -0.43971804
C        0.02578901      -0.16309604      -0.34583174
C        1.41341327      -0.05932641      -0.28055991
C        2.14997602       1.01669615      -0.27411667
C        1.29042152       1.29670876       2.70667570
C        0.04885000       1.22214817       2.87972363
H       -0.39728675       1.90642033      -0.26415077
H       -1.86608239       0.90054141      -0.27006036
H       -0.50632635      -1.01490341      -0.44329420
H        1.84526139      -1.08878250      -0.43788174
H        3.36232907       0.94786859      -0.28416754
H        1.84691192       2.01615895      -0.10249377
H        1.93058104       0.37664347       2.82143972
H        1.91386545       2.18202022       2.64311426
H       -0.52132476       2.20264507       2.69022387
H       -0.43270236       0.34079658       2.79224190
