16
Properties=species:S:1:pos:R:3 energy:=T -17.917372504997=T gnorm:=T 0.000972558229=T xtb:=T 6.7.1=T (edcfbbe)=T pbc="F F F"
C       -0.66361590       0.98364284       0.37938977
C       -0.00066268      -0.08999189      -0.30876408
C        1.36361921      -0.13953397      -0.25856542
C        2.14428547       1.06291375       0.35804863
C        1.50838490       1.23579743       1.91513946
C       -0.02014174       1.30796000       1.96153537
H       -0.44739834       1.96327719      -0.16156153
H       -1.77361804       0.83903997       0.53087759
H       -0.58284626      -0.92504722      -0.56282612
H        1.99692724      -1.04485648      -0.56450625
H        3.19704475       0.80760201       0.50824515
H        1.82972400       1.96496278      -0.25506528
H        1.76370750       0.46750558       2.50084788
H        1.92568545       2.20586864       2.22696149
H       -0.47598514       2.37565982       2.24009500
H       -0.30437901       0.46539230       2.58222722
