16
Properties=species:S:1:pos:R:3 energy:=T -17.821683480713=T gnorm:=T 0.000421170293=T xtb:=T 6.7.1=T (edcfbbe)=T pbc="F F F"
C       -0.74820333       1.07847852      -0.31943621
C        0.06947902      -0.06701320      -0.31842781
C        1.39604711      -0.04341357      -0.38356637
C        2.17920587       0.98143321      -0.25732153
C        1.48782041       1.17758932       2.54424444
C        0.05696998       1.25693254       2.63636954
H       -0.31804902       1.98608189      -0.14395916
H       -1.83820537       0.97501570      -0.12687844
H       -0.48223763      -1.16207271      -0.27167278
H        1.97816821      -1.02377727      -0.37898275
H        3.27923994       0.86649581      -0.18820002
H        1.82351886       1.96689984      -0.20787275
H        1.94569003       0.38229598       2.65367154
H        1.96766824       2.04356326       2.50580164
H       -0.50361379       2.09388595       2.41519920
H       -0.46981730       0.29979136       2.71222654
