16
Properties=species:S:1:pos:R:3 energy:=T -17.822687320067=T gnorm:=T 0.000356470142=T xtb:=T 6.7.1=T (edcfbbe)=T pbc="F F F"
C       -0.64012462       0.94394252      -0.25730397
C        0.05911867      -0.05652366      -0.31783755
C        1.47093912      -0.02241548      -0.28242765
C        2.23044369       1.01747639      -0.27296733
C        1.37063320       1.26032098       2.64086793
C        0.11861716       1.35764282       2.80113581
H       -0.30374994       1.94995756      -0.12759343
H       -1.88654753       0.91847118      -0.16144786
H       -0.50989407      -0.99684835      -0.40106237
H        1.91074994      -1.09388055      -0.39306520
H        3.28992003       0.98055245      -0.19658521
H        1.76790062       1.97589515      -0.23151901
H        1.89743303       0.28804648       2.78690401
H        1.95399674       2.07837912       2.60380916
H       -0.46642586       2.10358371       2.58204021
H       -0.40452308       0.42567005       2.69030650
