16
Properties=species:S:1:pos:R:3 energy:=T -17.822687320067=T gnorm:=T 0.000356470142=T xtb:=T 6.7.1=T (edcfbbe)=T pbc="F F F"
C       -0.85054170       1.02797146      -0.33827283
C       -0.00568839      -0.09092514      -0.32273204
C        1.31594769      -0.19149893      -0.42532441
C        2.30118512       0.99745230      -0.36795587
C        1.42175463       1.30207488       2.69069182
C        0.05756279       1.28657945       2.77428482
H       -0.36708825       2.03505385      -0.21623937
H       -1.86802119       0.86886443      -0.25104690
H       -0.46656621      -1.05837962      -0.36355890
H        1.94737166      -0.99440633      -0.50743411
H        3.34819677       0.88761125      -0.31218497
H        1.79689762       2.07402011      -0.16594210
H        1.92303264       0.28587984       2.78268223
H        1.93935830       2.26703263       2.55029000
H       -0.60084186       2.15705497       2.63484579
H       -0.48661928       0.39451129       2.90098313
