16
Properties=species:S:1:pos:R:3 energy:=T -17.813738202088=T gnorm:=T 0.000438383854=T xtb:=T 6.7.1=T (edcfbbe)=T pbc="F F F"
C       -0.78095284       1.02802611       0.10402764
C        0.10887913       0.05029892      -0.29943697
C        1.48661130      -0.01512104      -0.31732458
C        2.10518258       1.10725724       0.09466722
C        1.41543088       1.20234267       2.19562446
C        0.01500790       1.25778094       2.26967713
H       -0.33525738       1.94286336      -0.04906982
H       -1.83627250       0.91224017       0.29502610
H       -0.34905502      -1.00104539      -0.45926248
H        1.97837884      -1.14082404      -0.43952503
H        3.30217340       0.98607584       0.15582894
H        1.69068395       2.06203459      -0.05430175
H        1.92260307       0.35109251       2.45402806
H        1.85636204       2.18710234       2.25422618
H       -0.54824815       2.07295551       2.30208333
H       -0.53316763       0.36241237       2.47039261
