16
Properties=species:S:1:pos:R:3 energy:=T -17.924819342926=T gnorm:=T 0.000932102438=T xtb:=T 6.7.1=T (edcfbbe)=T pbc="F F F"
C       -0.55384735       1.02817048       0.41400352
C        0.10369716      -0.17154430      -0.13480738
C        1.29549657      -0.23244114      -0.13128307
C        2.07532435       1.01550473       0.55683312
C        1.47927560       1.29511639       1.79847610
C       -0.07789872       1.27635156       1.74473565
H       -0.60402259       1.95486738      -0.20083852
H       -1.63711873       0.83055271       0.53009221
H       -0.47850824      -0.94557591      -0.64932470
H        2.04949812      -1.04687997      -0.56444528
H        3.31586324       0.82875630       0.62107927
H        1.91414112       1.91012277      -0.19185863
H        1.88582270       0.46189394       2.46204974
H        1.89875286       2.14624350       2.13400294
H       -0.38189061       2.20377993       2.13086415
H       -0.46968341       0.52292495       2.49596227
