16
Properties=species:S:1:pos:R:3 energy:=T -17.877429643677=T gnorm:=T 0.000779366901=T xtb:=T 6.7.1=T (edcfbbe)=T pbc="F F F"
C       -0.67551966       1.02693854       0.36462115
C        0.15338788      -0.27573478      -0.23030082
C        1.44445356      -0.08088207      -0.12188417
C        2.06510806       0.97396246       0.24250292
C        1.52798962       1.20091379       2.06348659
C        0.04689286       1.31318813       1.85553115
H       -0.46738912       1.97730543      -0.28080931
H       -1.74012818       0.85018962       0.46941205
H       -0.48075519      -1.00580023      -0.56860399
H        1.96486464      -1.03088891      -0.49629294
H        3.18019563       0.92070200       0.30902842
H        1.96624897       1.92041415      -0.12323670
H        1.91305636       0.52320977       2.65503426
H        1.88103876       2.23854036       2.26018278
H       -0.43643711       2.13316420       2.26011872
H       -0.45745215       0.42141142       2.55019700
