16
Properties=species:S:1:pos:R:3 energy:=T -17.924819342926=T gnorm:=T 0.000932102438=T xtb:=T 6.7.1=T (edcfbbe)=T pbc="F F F"
C       -0.62162380       0.98040184       0.56443342
C        0.03660280      -0.31235627      -0.16427196
C        1.39036935      -0.16852616      -0.28114425
C        2.16493948       0.99153004       0.43544523
C        1.38981853       1.31204042       1.82683098
C        0.05069824       1.25193872       1.74750673
H       -0.46951546       1.81014582      -0.16712622
H       -1.77879091       0.81376052       0.50507211
H       -0.52181109      -1.02428617      -0.63269404
H        1.97219441      -1.02854778      -0.56702515
H        3.14320098       0.67111932       0.51603341
H        2.02829819       1.89302889      -0.15515703
H        1.89080995       0.48077908       2.42630159
H        1.93256167       2.31058442       2.22220037
H       -0.39252204       2.26662444       2.18158339
H       -0.38542460       0.51415151       2.53905178
