16
Properties=species:S:1:pos:R:3 energy:=T -17.917372504997=T gnorm:=T 0.000972558229=T xtb:=T 6.7.1=T (edcfbbe)=T pbc="F F F"
C       -0.57723501       0.99565483       0.45423186
C        0.11316375      -0.10747149      -0.05714819
C        1.38522269      -0.15769365      -0.18734444
C        1.92216957       0.91885254       0.40405401
C        1.52934152       1.26371318       1.94678842
C        0.04215122       1.27279181       1.96211883
H       -0.38079052       1.91377656      -0.24963860
H       -1.63150022       0.81487039       0.48295797
H       -0.49949212      -1.02720555      -0.51042305
H        2.01733753      -0.93230463      -0.53850816
H        3.13732711       0.81571610       0.54955625
H        1.92183224       2.04597336      -0.20865188
H        1.84964185       0.57985230       2.58498212
H        1.89370389       2.24208375       2.23330700
H       -0.38039200       2.29575317       2.19343709
H       -0.38834026       0.56443799       2.58610737
