16
Properties=species:S:1:pos:R:3 energy:=T -17.834185856637=T gnorm:=T 0.000899460021=T xtb:=T 6.7.1=T (edcfbbe)=T pbc="F F F"
C       -0.75289856       0.94988835       0.28006333
C        0.07417296      -0.08238914      -0.30141331
C        1.38758178      -0.08628266      -0.30120433
C        2.06035817       1.01480724       0.26187822
C        1.38630393       1.31054680       2.14067317
C       -0.03908694       1.24491757       2.09416000
H       -0.31212874       2.02987518      -0.22215091
H       -1.81841184       0.98072973       0.32109483
H       -0.46001817      -1.00841529      -0.37639378
H        1.87641733      -0.96110984      -0.52337474
H        3.24528275       1.00023207       0.22759971
H        1.84258797       1.97095390      -0.15879962
H        1.93832238       0.32166614       2.47708363
H        1.98017939       2.23575022       2.27693051
H       -0.56422741       2.32764103       2.38093975
H       -0.44757384       0.32316088       2.50094902
