16
Properties=species:S:1:pos:R:3 energy:=T -17.877429643677=T gnorm:=T 0.000779366901=T xtb:=T 6.7.1=T (edcfbbe)=T pbc="F F F"
C       -0.71823498       1.05005597       0.36502762
C        0.22930713      -0.16758440      -0.12848145
C        1.32743968      -0.18933935      -0.26707341
C        2.09521798       0.94445258       0.27520636
C        1.47409137       1.25599010       2.02987606
C       -0.01610080       1.28296929       2.07880957
H       -0.40635500       1.94025915      -0.19400490
H       -1.72139842       0.89123086       0.36612981
H       -0.42934935      -0.92825146      -0.47184172
H        1.93510454      -1.11816183      -0.56757662
H        3.20069839       0.90650513       0.40353396
H        1.87370839       2.02252913      -0.23331269
H        1.97207864       0.52475572       2.48262103
H        1.93232094       2.20028188       2.21392356
H       -0.56035288       2.13967019       2.29585794
H       -0.46511740       0.48681530       2.49861379
