16
Properties=species:S:1:pos:R:3 energy:=T -17.815412885497=T gnorm:=T 0.000359351609=T xtb:=T 6.7.1=T (edcfbbe)=T pbc="F F F"
C       -0.71288411       0.98485666      -0.08597887
C       -0.07910251      -0.03116382      -0.25814739
C        1.50313636       0.05364679      -0.26544736
C        2.22119944       1.00692624      -0.00331850
C        1.37955876       1.18761140       2.49028973
C       -0.04431616       1.25871166       2.39385248
H       -0.31922778       1.94977268      -0.02445490
H       -1.83213111       0.87338814       0.06210973
H       -0.48515513      -1.06234425      -0.33553799
H        1.86516231      -1.00094865      -0.41603947
H        3.30104287       0.94381298       0.07933748
H        1.73883843       1.96044087      -0.06661100
H        1.97416784       0.38438679       2.58624005
H        1.93590593       2.16153721       2.23739826
H       -0.63495267       2.10250778       2.29627527
H       -0.59023715       0.22754956       2.55201114
