16
Properties=species:S:1:pos:R:3 energy:=T -17.822687320067=T gnorm:=T 0.000356470142=T xtb:=T 6.7.1=T (edcfbbe)=T pbc="F F F"
C       -0.70410519       0.91771898      -0.15600478
C        0.10468326      -0.08945256      -0.38473358
C        1.45669452      -0.00094926      -0.37958133
C        2.17122198       1.02883741      -0.40397553
C        1.40273250       1.33691029       2.72477711
C        0.12736482       1.29361005       2.75219972
H       -0.36636911       1.95052305      -0.22805707
H       -1.85088642       1.00332552      -0.16002904
H       -0.42197505      -1.09333382      -0.46440259
H        1.90715181      -0.95407397      -0.39518381
H        3.31252902       0.87174522      -0.20838894
H        1.86465564       2.00114369      -0.20676415
H        2.07387064       0.34078620       2.89168399
H        2.04653140       2.17512171       2.69168939
H       -0.50379563       2.11787955       2.61680905
H       -0.55322806       0.38449605       2.78286199
