16
Properties=species:S:1:pos:R:3 energy:=T -17.815412885497=T gnorm:=T 0.000359351609=T xtb:=T 6.7.1=T (edcfbbe)=T pbc="F F F"
C       -0.75987533       1.05453104      -0.01811367
C        0.08341467      -0.19973013      -0.25491508
C        1.47891927      -0.15093408      -0.35942498
C        2.24847980       0.95051485      -0.04979759
C        1.43051227       1.22032570       2.38907210
C        0.01856234       1.25551509       2.42292417
H       -0.31432787       1.88276420       0.02001941
H       -1.80404594       0.88566515       0.13925880
H       -0.56100795      -0.92674974      -0.41679917
H        2.01556354      -1.03409481      -0.45584894
H        3.27663465       0.95489863       0.09158067
H        1.85588427       1.95529725       0.01104794
H        2.00167397       0.31997399       2.46409413
H        1.91063487       2.19541582       2.37960951
H       -0.54660550       2.07860865       2.40419851
H       -0.58350596       0.34408623       2.47137890
