16
Properties=species:S:1:pos:R:3 energy:=T -17.917372504997=T gnorm:=T 0.000972558229=T xtb:=T 6.7.1=T (edcfbbe)=T pbc="F F F"
C       -0.61412390       0.96205882       0.54388939
C        0.10790598      -0.18501809      -0.16995140
C        1.45464376      -0.10080847      -0.14736881
C        2.18584014       1.08480909       0.32939757
C        1.46754537       1.23876992       1.89371539
C        0.06325012       1.33626726       1.82384647
H       -0.49069301       1.95324138      -0.22818931
H       -1.71433327       0.84361520       0.39339087
H       -0.45676702      -0.97626534      -0.53165748
H        1.91744311      -1.04295077      -0.60467936
H        3.19625305       0.82974924       0.51184662
H        2.05408481       1.97097108      -0.23836404
H        1.84229425       0.62441804       2.52695017
H        1.98053557       2.35312381       2.17867260
H       -0.44021345       2.26131314       2.15806321
H       -0.46983352       0.49613193       2.59851528
