16
Properties=species:S:1:pos:R:3 energy:=T -17.819328002362=T gnorm:=T 0.000336922030=T xtb:=T 6.7.1=T (edcfbbe)=T pbc="F F F"
C       -0.76741358       0.94982970      -0.07227605
C        0.01098339      -0.05734217      -0.27569040
C        1.49306478      -0.09110977      -0.29723013
C        2.14658237       0.90216543      -0.19146925
C        1.47030090       1.16296653       2.49796890
C        0.14558313       1.22923604       2.55401302
H       -0.26166544       2.05018743       0.06440417
H       -1.79767291       0.89632781      -0.03245052
H       -0.47659594      -1.09758377      -0.44698751
H        2.03740811      -1.06059721      -0.38628031
H        3.26601941       0.93865340      -0.06897289
H        1.80165764       1.94626942      -0.11834980
H        1.92875380       0.35920963       2.69168215
H        2.01859850       2.25171915       2.44176147
H       -0.50048070       2.09944797       2.41847525
H       -0.59729580       0.33078965       2.67022960
