16
Properties=species:S:1:pos:R:3 energy:=T -17.819328002362=T gnorm:=T 0.000336922030=T xtb:=T 6.7.1=T (edcfbbe)=T pbc="F F F"
C       -0.69611855       1.03726739      -0.11070795
C       -0.05070278      -0.04701162      -0.20818658
C        1.42415293      -0.12052402      -0.26467594
C        2.13555461       0.88471654      -0.11996489
C        1.35933270       1.23863761       2.44655876
C        0.09650375       1.24192075       2.44385504
H       -0.37419548       2.04414797       0.00815023
H       -1.77234656       0.97513040      -0.24469473
H       -0.50969978      -1.04944514      -0.37015793
H        1.83538518      -0.94922625      -0.36449308
H        3.26540689       0.94447805      -0.07437493
H        1.78069484       2.03707440      -0.07317068
H        1.88627998       0.31132081       2.58744504
H        1.90820391       2.23905279       2.35827631
H       -0.39209715       2.21797686       2.36685407
H       -0.48319427       0.41627708       2.58317526
