16
Properties=species:S:1:pos:R:3 energy:=T -17.822687320067=T gnorm:=T 0.000356470142=T xtb:=T 6.7.1=T (edcfbbe)=T pbc="F F F"
C       -0.80055192       0.95735963      -0.19710797
C        0.00076222      -0.03391445      -0.37815438
C        1.33509898      -0.03433947      -0.43036016
C        2.30359638       0.91941743      -0.37434306
C        1.41067882       1.28526002       2.71079065
C        0.00854571       1.31123253       2.62274845
H       -0.40185772       1.96027425      -0.23463209
H       -1.79833788       0.88593944      -0.23414221
H       -0.41042906      -1.14026335      -0.48232405
H        1.89786327      -1.07755810      -0.39969903
H        3.20788813       0.96186705      -0.22404323
H        1.83641240       1.92694703      -0.21317631
H        1.93408887       0.38296573       2.77710722
H        2.00655863       2.14743745       2.71505199
H       -0.62489220       2.11480341       2.66173133
H       -0.57889878       0.39247688       2.71372654
