16
Properties=species:S:1:pos:R:3 energy:=T -17.813738202088=T gnorm:=T 0.000438383854=T xtb:=T 6.7.1=T (edcfbbe)=T pbc="F F F"
C       -0.65642235       1.07348949       0.22557741
C       -0.03241918      -0.03284746      -0.29723545
C        1.41996401       0.00098995      -0.23791751
C        2.08948353       1.00477577       0.12913420
C        1.33035496       1.27223324       2.19905793
C        0.05823252       1.23960738       2.31542732
H       -0.31209354       1.99538272       0.05674568
H       -1.78692767       0.91495577       0.14478987
H       -0.40493593      -1.00320341      -0.37227904
H        1.94815740      -1.02830994      -0.44985702
H        3.17390063       0.97417473       0.23821096
H        1.88124256       1.97070930      -0.08064724
H        1.89243839       0.41539883       2.40975311
H        2.00764466       2.23400263       2.28135707
H       -0.44879139       2.01401339       2.26617461
H       -0.59132174       0.34103198       2.48649123
