16
Properties=species:S:1:pos:R:3 energy:=T -17.917372504997=T gnorm:=T 0.000972558229=T xtb:=T 6.7.1=T (edcfbbe)=T pbc="F F F"
C       -0.68990919       1.02423438       0.50905356
C        0.09715306      -0.28245019      -0.17386193
C        1.47023206      -0.19023221      -0.10697860
C        2.15356255       1.02351759       0.38603443
C        1.46116664       1.27778637       1.89152568
C        0.01072285       1.32488313       1.86632372
H       -0.46878841       1.91675835      -0.30840350
H       -1.76191240       0.76946372       0.49004111
H       -0.52372624      -1.01530316      -0.62691628
H        2.02328536      -0.97719943      -0.68192914
H        3.18164551       0.74748455       0.62135632
H        1.91313517       1.86397002      -0.18886290
H        1.86821546       0.51558935       2.65299138
H        1.91192086       2.31314854       2.28950197
H       -0.49111480       2.37281726       2.25822955
H       -0.34413125       0.46099008       2.60290740
