16
Properties=species:S:1:pos:R:3 energy:=T -17.813738202088=T gnorm:=T 0.000438383854=T xtb:=T 6.7.1=T (edcfbbe)=T pbc="F F F"
C       -0.69989341       1.01005546       0.11487424
C       -0.07564583      -0.08133895      -0.35770588
C        1.50653965       0.01246789      -0.19958007
C        2.19568837       0.99792652       0.16628232
C        1.40826486       1.25182533       2.15750138
C        0.01847808       1.24420335       2.29746916
H       -0.31464181       2.13638412       0.09445417
H       -1.82199468       0.94696951       0.18169263
H       -0.47797916      -1.04694781      -0.40388591
H        1.98937106      -0.96982606      -0.38676968
H        3.22325343       0.95470359       0.23820663
H        1.81152622       2.01889339      -0.02328112
H        1.88791242       0.37279625       2.57825771
H        1.97059877       2.07224996       2.36167626
H       -0.50978688       1.98984742       2.27957762
H       -0.45632460       0.35149428       2.55183736
