16
Properties=species:S:1:pos:R:3 energy:=T -17.834185856637=T gnorm:=T 0.000899460021=T xtb:=T 6.7.1=T (edcfbbe)=T pbc="F F F"
C       -0.70998475       1.10913369       0.13297315
C        0.07810758      -0.17404386      -0.25944032
C        1.35918641      -0.11131813      -0.27660174
C        2.10803201       1.04282083       0.28482208
C        1.42177812       1.29170902       2.10271081
C        0.01490315       1.35939220       1.98611435
H       -0.38539394       1.89615245      -0.15534924
H       -1.74442087       1.11496300       0.33348493
H       -0.39171882      -0.96060361      -0.49335924
H        1.97817480      -0.94135327      -0.46170785
H        3.21215546       0.94398814       0.23774850
H        1.77695050       2.00722124      -0.11090331
H        1.88967700       0.37215643       2.53242922
H        1.93279432       2.22034286       2.31937929
H       -0.46329168       2.11134979       2.25929651
H       -0.45191755       0.30640971       2.55268549
