16
Properties=species:S:1:pos:R:3 energy:=T -17.917372504997=T gnorm:=T 0.000972558229=T xtb:=T 6.7.1=T (edcfbbe)=T pbc="F F F"
C       -0.69987004       0.99811161       0.27757518
C        0.04650393      -0.20847232      -0.15222534
C        1.44777716      -0.21948554      -0.09252219
C        2.07676536       0.87706529       0.26825927
C        1.58349984       1.28993060       1.84978829
C       -0.06851816       1.23311840       1.96331783
H       -0.47875995       1.99106009      -0.20829826
H       -1.84328241       0.87183241       0.48236339
H       -0.51902816      -0.90926033      -0.58253778
H        2.04199603      -0.99760066      -0.61224248
H        3.20859031       0.79008473       0.57266481
H        1.99813029       1.89367229      -0.16104135
H        1.91304443       0.50285342       2.59596262
H        1.88227161       2.28940931       2.15650723
H       -0.41919171       2.27869702       2.16471128
H       -0.43495282       0.48919472       2.58681535
