16
Properties=species:S:1:pos:R:3 energy:=T -17.924819342926=T gnorm:=T 0.000932102438=T xtb:=T 6.7.1=T (edcfbbe)=T pbc="F F F"
C       -0.60833152       1.02047794       0.43011306
C        0.09377719      -0.24496909      -0.13313474
C        1.31038106      -0.13564168      -0.13864681
C        2.13738111       0.95800675       0.64407099
C        1.48403149       1.29208908       1.78270657
C        0.05710827       1.25076785       1.90027719
H       -0.53926973       1.89532117      -0.21772280
H       -1.64042123       0.80558835       0.46524323
H       -0.48653776      -1.06658316      -0.63902169
H        2.03047186      -1.11162387      -0.52359906
H        3.13782412       0.76505676       0.53967250
H        1.97971037       1.83668298      -0.20414676
H        1.91682289       0.56621343       2.51650266
H        1.82996708       2.17977679       2.14780417
H       -0.37215270       2.28224096       2.20754788
H       -0.30723991       0.49727222       2.49572505
