16
Properties=species:S:1:pos:R:3 energy:=T -17.917372504997=T gnorm:=T 0.000972558229=T xtb:=T 6.7.1=T (edcfbbe)=T pbc="F F F"
C       -0.57238574       1.03774969       0.42412559
C        0.08440436      -0.22481425      -0.21529897
C        1.43944086      -0.16441233      -0.07653342
C        2.08890564       0.85033532       0.38204149
C        1.51063444       1.31575904       1.88886244
C       -0.07630080       1.38181122       1.84551831
H       -0.43367016       1.87065374      -0.26934163
H       -1.62780126       0.67402452       0.45142883
H       -0.48157212      -1.02097101      -0.52478089
H        1.96853543      -1.02553821      -0.44337972
H        3.16533067       0.81350023       0.43752524
H        1.89804639       1.92707426      -0.16377881
H        1.87974051       0.47591432       2.58429781
H        1.79343732       2.23300272       2.19446045
H       -0.47607142       2.26292407       2.16904342
H       -0.45985995       0.62468005       2.58800621
