16
Properties=species:S:1:pos:R:3 energy:=T -17.821683480713=T gnorm:=T 0.000421170293=T xtb:=T 6.7.1=T (edcfbbe)=T pbc="F F F"
C       -0.79389516       1.04816414      -0.20603220
C       -0.08706476      -0.06872194      -0.33860920
C        1.50245090      -0.09213779      -0.34277389
C        2.29218195       1.08311682      -0.13539268
C        1.46093639       1.28591989       2.63873844
C        0.13230172       1.28269250       2.59324176
H       -0.35762704       2.15881068      -0.12021095
H       -1.85552425       0.90263955      -0.17055211
H       -0.43578359      -1.11222811      -0.52667537
H        1.94051146      -1.14276741      -0.38261044
H        3.31934164       1.00026234      -0.06096556
H        1.86041584       1.96849420      -0.19668316
H        1.91336922       0.35053883       2.55002295
H        1.97120026       2.16608070       2.55961875
H       -0.51787711       2.17345270       2.47082414
H       -0.52418735       0.23393231       2.69110224
