16
Properties=species:S:1:pos:R:3 energy:=T -17.819328002362=T gnorm:=T 0.000336922030=T xtb:=T 6.7.1=T (edcfbbe)=T pbc="F F F"
C       -0.83849596       0.98837032      -0.19040232
C       -0.03466396      -0.07697316      -0.29063841
C        1.46250052      -0.06784012      -0.18065796
C        2.24848910       0.94860474      -0.12726589
C        1.36386070       1.24396909       2.44583894
C        0.03186866       1.33775225       2.47908419
H       -0.36668438       1.99318691      -0.05986357
H       -1.75460323       0.95786915       0.00156303
H       -0.61359164      -1.01616991      -0.32927018
H        2.02835812      -1.03136228      -0.47174610
H        3.32983914       0.90266278      -0.14801117
H        1.79111366       2.06046026       0.01305585
H        2.00309785       0.29250799       2.72162149
H        1.90881365       2.16068400       2.34529244
H       -0.42747363       2.18764034       2.46510736
H       -0.48770858       0.34295811       2.60149836
