16
Properties=species:S:1:pos:R:3 energy:=T -17.924819342926=T gnorm:=T 0.000932102438=T xtb:=T 6.7.1=T (edcfbbe)=T pbc="F F F"
C       -0.68532391       0.95790005       0.47241944
C        0.04777779      -0.31764193      -0.16394430
C        1.25958050      -0.06803060      -0.12957502
C        2.12777704       0.95655968       0.37462314
C        1.48624562       1.28218022       1.78816983
C       -0.03076436       1.32078289       1.86698561
H       -0.53663089       1.74925504      -0.19386025
H       -1.74184360       0.84940605       0.61580692
H       -0.42418449      -0.97164695      -0.51286436
H        2.07172063      -0.98518254      -0.56032053
H        3.21187106       0.82271210       0.49325765
H        1.89302196       1.87451634      -0.22948877
H        1.90725197       0.49520508       2.60175960
H        1.94876211       2.17047266       2.24744627
H       -0.44224385       2.32006144       2.21469377
H       -0.40449699       0.55370224       2.48741274
