16
Properties=species:S:1:pos:R:3 energy:=T -17.821683480713=T gnorm:=T 0.000421170293=T xtb:=T 6.7.1=T (edcfbbe)=T pbc="F F F"
C       -0.83596868       1.00044237      -0.15694948
C       -0.01705132       0.00292463      -0.27279450
C        1.40317773      -0.04475901      -0.20338701
C        2.32660670       1.00485521      -0.13261679
C        1.35541975       1.17341238       2.62106719
C        0.08998667       1.28629265       2.58777286
H       -0.34802233       1.97461273      -0.09387013
H       -1.79237437       0.92271159      -0.12157946
H       -0.55335307      -1.08468782      -0.31618693
H        2.02284614      -1.02504154      -0.40519769
H        3.23736572       0.94701161      -0.12362998
H        1.75153578       2.03627413      -0.09289084
H        1.98965847       0.28311460       2.71430344
H        1.88020204       2.25247670       2.52593922
H       -0.56328272       2.24426014       2.58455298
H       -0.53174906       0.47477344       2.62539304
