16
Properties=species:S:1:pos:R:3 energy:=T -17.834185856637=T gnorm:=T 0.000899460021=T xtb:=T 6.7.1=T (edcfbbe)=T pbc="F F F"
C       -0.62455174       1.02372903       0.08471286
C       -0.01308641      -0.10266085      -0.22692835
C        1.34936155      -0.15140185      -0.23975716
C        2.01334016       0.89606097       0.19240971
C        1.46769323       1.21622613       1.95660796
C        0.01769012       1.16385634       2.13849478
H       -0.35661434       2.00589108      -0.09974253
H       -1.76524173       0.96880423       0.39213986
H       -0.46023460      -0.94583175      -0.50941908
H        2.00977989      -1.01119642      -0.53171237
H        3.19637624       0.88513603       0.28131457
H        1.82418302       2.05524108      -0.15883199
H        1.94478500       0.29815792       2.54528562
H        2.01177296       2.23441909       2.34312255
H       -0.50443412       2.12431214       2.30796702
H       -0.55119624       0.31270005       2.59692838
