16
Properties=species:S:1:pos:R:3 energy:=T -17.815412885497=T gnorm:=T 0.000359351609=T xtb:=T 6.7.1=T (edcfbbe)=T pbc="F F F"
C       -0.75567862       1.04238279      -0.03987252
C       -0.04359840       0.04203080      -0.20129223
C        1.44212567       0.01733929      -0.20629798
C        2.14111865       1.16960387      -0.06141028
C        1.38828295       1.18259459       2.37305600
C       -0.00174119       1.24468627       2.43036306
H       -0.31416793       1.99658784       0.07796813
H       -1.85239467       0.99771561       0.05012452
H       -0.44509565      -1.02380016      -0.36810049
H        1.93042493      -1.07032972      -0.40797810
H        3.30240771       0.93601601       0.00066856
H        1.76202654       1.97166599      -0.01393671
H        1.97629956       0.34598716       2.48471809
H        1.97067536       2.08082567       2.17568858
H       -0.49794144       2.06444907       2.28616744
H       -0.56018235       0.37630558       2.45253085
