16
Properties=species:S:1:pos:R:3 energy:=T -17.819328002362=T gnorm:=T 0.000336922030=T xtb:=T 6.7.1=T (edcfbbe)=T pbc="F F F"
C       -0.73352721       1.07877095      -0.11943403
C       -0.06979417      -0.09016659      -0.31478001
C        1.53195006       0.05797315      -0.33543852
C        2.20412396       1.00220704      -0.11719349
C        1.32228799       1.25841650       2.49840702
C        0.09882609       1.18012234       2.46977131
H       -0.45449568       2.06107992      -0.11037550
H       -1.84277841       0.90612316      -0.09136728
H       -0.51747831      -1.13959325      -0.27916868
H        1.94243966      -1.01688350      -0.25702589
H        3.29353284       0.96675124      -0.05475106
H        1.89451243       2.03654836      -0.02963672
H        1.95070290       0.36322730       2.66266007
H        1.84362279       2.15693550       2.39430580
H       -0.51316223       2.04559792       2.46365328
H       -0.54332448       0.33277882       2.56215243
