16
Properties=species:S:1:pos:R:3 energy:=T -17.813738202088=T gnorm:=T 0.000438383854=T xtb:=T 6.7.1=T (edcfbbe)=T pbc="F F F"
C       -0.62354029       0.99807319       0.07496166
C       -0.08522797      -0.13646403      -0.24698749
C        1.61305261      -0.14553388      -0.35139917
C        2.17112751       1.04940887       0.07359849
C        1.42115217       1.12205924       2.18472149
C        0.10039781       1.31462770       2.19247361
H       -0.33105441       2.04302314       0.01369552
H       -1.72832197       0.90146700       0.25033060
H       -0.41557210      -1.06368475      -0.48207987
H        1.96679077      -0.99956666      -0.34532594
H        3.22601580       0.90787587       0.20325539
H        1.71806028       1.96005041      -0.08525626
H        1.92538414       0.39514423       2.41166711
H        1.95585217       2.10893739       2.37705727
H       -0.47926196       2.12183367       2.33712375
H       -0.48630055       0.30090607       2.57582135
