16
Properties=species:S:1:pos:R:3 energy:=T -17.819328002362=T gnorm:=T 0.000336922030=T xtb:=T 6.7.1=T (edcfbbe)=T pbc="F F F"
C       -0.87962538       1.07949793      -0.03307557
C       -0.01185089      -0.06063828      -0.26910254
C        1.56695544      -0.03048910      -0.28643888
C        2.19278742       0.91069316      -0.13504760
C        1.40360575       1.23719740       2.48314026
C        0.12745725       1.28382210       2.49673557
H       -0.30366528       2.02006664      -0.04948638
H       -1.79296245       0.81775481       0.03006343
H       -0.53938011      -0.97486994      -0.38135315
H        2.00347488      -1.02903765      -0.44604739
H        3.37373106       0.94741253      -0.04648783
H        1.82990242       2.07556013       0.00826318
H        1.98321852       0.24295000       2.56667687
H        1.97761214       2.28777198       2.44712273
H       -0.49966890       2.24733930       2.41363585
H       -0.49257789       0.35875261       2.49283991
