16
Properties=species:S:1:pos:R:3 energy:=T -17.815412885497=T gnorm:=T 0.000359351609=T xtb:=T 6.7.1=T (edcfbbe)=T pbc="F F F"
C       -0.81008379       1.08985374       0.06204160
C       -0.08904606      -0.14128673      -0.33664452
C        1.51466975      -0.08232787      -0.28924024
C        2.24817780       1.02451706       0.00643266
C        1.38558781       1.31220658       2.32417184
C        0.17274208       1.22647797       2.32299157
H       -0.28720825       2.03938526      -0.12513592
H       -1.78694022       0.86457700       0.02006392
H       -0.40996277      -1.07481571      -0.35322460
H        1.91256779      -0.91095521      -0.37975416
H        3.20970518       0.87882784       0.01540156
H        1.81120242       2.01248787       0.04748285
H        1.97737905       0.34981236       2.54253657
H        1.96357891       2.17764516       2.38782365
H       -0.44731365       2.12851027       2.23819148
H       -0.53706562       0.35860192       2.37742237
