16
Properties=species:S:1:pos:R:3 energy:=T -17.877429643677=T gnorm:=T 0.000779366901=T xtb:=T 6.7.1=T (edcfbbe)=T pbc="F F F"
C       -0.67367569       0.98274298       0.22570754
C       -0.02236635      -0.13313165      -0.21801583
C        1.35062880      -0.16181448      -0.19074540
C        2.22109580       0.94998104       0.34104541
C        1.59069063       1.28681435       2.06875844
C       -0.14889240       1.36065097       1.98990254
H       -0.52526290       1.97281362      -0.13658871
H       -1.66040314       0.92104044       0.41295981
H       -0.53789923      -1.04711501      -0.54282286
H        1.98655154      -1.04792738      -0.53851037
H        3.23850922       0.87432414       0.53726854
H        2.00742238       1.86998732      -0.22318943
H        1.83827116       0.40832477       2.59192621
H        1.86274414       2.17798368       2.25668532
H       -0.40614934       2.21502882       2.25203720
H       -0.39245998       0.49583971       2.58708741
