16
Properties=species:S:1:pos:R:3 energy:=T -17.819328002362=T gnorm:=T 0.000336922030=T xtb:=T 6.7.1=T (edcfbbe)=T pbc="F F F"
C       -0.82210899       1.02008761       0.02544833
C       -0.07336346      -0.02540972      -0.28762160
C        1.45481731      -0.08188326      -0.30726289
C        2.29056303       1.04935186      -0.15324542
C        1.49329112       1.17775432       2.51888141
C        0.08918331       1.32728674       2.50058496
H       -0.28368323       2.00714791       0.01200827
H       -1.80297342       1.06451196      -0.09523639
H       -0.37948767      -1.00256463      -0.37053768
H        1.89567789      -1.00353764      -0.46931178
H        3.22020910       0.97861531      -0.14657004
H        1.91150638       1.99240573      -0.03109236
H        1.97316944       0.37408847       2.57831324
H        1.94944672       2.15973842       2.48491033
H       -0.42461588       2.24363541       2.44398829
H       -0.50176669       0.24845231       2.63361833
