16
Properties=species:S:1:pos:R:3 energy:=T -17.917372504997=T gnorm:=T 0.000972558229=T xtb:=T 6.7.1=T (edcfbbe)=T pbc="F F F"
C       -0.69260286       1.02690484       0.44221091
C       -0.01548048      -0.23377440      -0.24682603
C        1.31528936      -0.21063989      -0.23650241
C        2.03093514       1.00026004       0.43475045
C        1.42371516       1.26474323       1.88782993
C       -0.03810851       1.25701256       1.93224414
H       -0.42615687       1.92779294      -0.20786882
H       -1.59849192       0.92129618       0.48160960
H       -0.51157879      -0.93163621      -0.61139189
H        1.99871574      -0.99413900      -0.60799930
H        3.16745696       0.73741042       0.47319623
H        1.83314270       2.01745767      -0.11144274
H        1.94979555       0.53582764       2.60109431
H        1.96642286       2.31133451       2.26205585
H       -0.47529840       2.27928361       2.18019918
H       -0.47668095       0.45626326       2.56939943
