16
Properties=species:S:1:pos:R:3 energy:=T -17.821683480713=T gnorm:=T 0.000421170293=T xtb:=T 6.7.1=T (edcfbbe)=T pbc="F F F"
C       -0.67486013       1.01773675      -0.16250576
C       -0.04846358       0.02186758      -0.36305815
C        1.50779448      -0.05677642      -0.37446584
C        2.29788947       1.00900546      -0.17362809
C        1.42103857       1.25542464       2.56668621
C        0.10349989       1.23267495       2.59307576
H       -0.40643587       1.91559381      -0.16108133
H       -1.86970553       0.92695084      -0.09804666
H       -0.55185734      -1.03182687      -0.53067346
H        1.85938846      -1.06957802      -0.53309886
H        3.19993637       0.93525065      -0.16378452
H        1.83000497       1.95638163       0.00686965
H        1.95472199       0.29675269       2.78284479
H        2.00285363       2.14482019       2.58901628
H       -0.48704532       2.20509447       2.53212587
H       -0.55543241       0.40569405       2.69268106
