16
Properties=species:S:1:pos:R:3 energy:=T -17.917372504997=T gnorm:=T 0.000972558229=T xtb:=T 6.7.1=T (edcfbbe)=T pbc="F F F"
C       -0.83690585       0.93706554       0.35412780
C        0.05756065      -0.16012367      -0.12424609
C        1.43730679      -0.17898114      -0.18252558
C        2.22241417       0.95494801       0.42294478
C        1.59566215       1.31692962       1.75649990
C       -0.00212706       1.27055816       1.87923471
H       -0.40708168       1.91916677      -0.21379296
H       -1.65286702       0.85153148       0.50999103
H       -0.48638622      -0.98225598      -0.58917711
H        1.94670251      -0.99571505      -0.63023617
H        3.09960401       0.90705509       0.48756940
H        1.94202673       1.88150839      -0.19422777
H        1.88238907       0.52266992       2.49382398
H        1.95452845       2.21031445       2.27642381
H       -0.54714706       2.18746141       2.27269978
H       -0.42082718       0.47666979       2.56915741
