16
Properties=species:S:1:pos:R:3 energy:=T -17.877429643677=T gnorm:=T 0.000779366901=T xtb:=T 6.7.1=T (edcfbbe)=T pbc="F F F"
C       -0.74600978       1.07776368       0.33371582
C        0.17497224      -0.20745870      -0.29364995
C        1.41642406      -0.25314165      -0.21338657
C        2.08235884       0.97768693       0.32243799
C        1.47988097       1.39051863       2.02656411
C       -0.08590337       1.33953845       1.91262724
H       -0.42049423       1.85866089      -0.24092892
H       -1.64944689       0.82432526       0.37684277
H       -0.53093145      -1.04105522      -0.45815959
H        1.89618691      -1.09424248      -0.50817475
H        3.09888831       0.83520036       0.47948219
H        1.89157842       1.90293156      -0.23458558
H        1.85454727       0.43567714       2.56983746
H        1.98687689       2.28896419       2.23757046
H       -0.49213428       2.27328001       2.16525305
H       -0.46795301       0.45077908       2.49741278
