16
Properties=species:S:1:pos:R:3 energy:=T -17.813738202088=T gnorm:=T 0.000438383854=T xtb:=T 6.7.1=T (edcfbbe)=T pbc="F F F"
C       -0.73753618       1.08556610       0.13903467
C       -0.00162775      -0.10387525      -0.38629504
C        1.42074861       0.07172815      -0.33561667
C        2.18068932       0.98604091       0.16898361
C        1.44739675       1.20356900       2.08506882
C        0.01421364       1.29918833       2.18774542
H       -0.27211887       1.98569975      -0.17492281
H       -1.72723186       0.96899468       0.19217053
H       -0.49616806      -1.00042474      -0.44065469
H        1.96121879      -1.03329125      -0.55834330
H        3.21272834       0.90792526       0.17498504
H        1.80757791       1.98527575      -0.01435914
H        2.02857742       0.34008794       2.38283862
H        1.91146124       2.20634475       2.27299423
H       -0.54710690       2.13951708       2.32383025
H       -0.47147095       0.37373408       2.43117940
