16
Properties=species:S:1:pos:R:3 energy:=T -17.821683480713=T gnorm:=T 0.000421170293=T xtb:=T 6.7.1=T (edcfbbe)=T pbc="F F F"
C       -0.82866221       0.96136719      -0.12574968
C       -0.01276284      -0.06031727      -0.27742113
C        1.46802100      -0.15661555      -0.27846512
C        2.29431882       1.06114994      -0.08525985
C        1.41648085       1.30427436       2.68648502
C        0.05800733       1.36302527       2.69539300
H       -0.31882868       2.11674475      -0.06893290
H       -1.89421005       0.99570509      -0.14842420
H       -0.42617844      -1.03000094      -0.31603343
H        1.95533617      -1.08205394      -0.36951019
H        3.35494367       0.88167746      -0.19499083
H        1.81331282       1.96694509      -0.09975882
H        2.02661001       0.46382291       2.75627971
H        2.02893467       2.23684587       2.59991337
H       -0.51941548       2.20935253       2.53790518
H       -0.50225676       0.32014542       2.65221448
