16
Properties=species:S:1:pos:R:3 energy:=T -17.924819342926=T gnorm:=T 0.000932102438=T xtb:=T 6.7.1=T (edcfbbe)=T pbc="F F F"
C       -0.69166105       1.01924351       0.33645096
C        0.01143135      -0.21714141      -0.16341315
C        1.30594547      -0.10620556      -0.18840826
C        2.07468008       0.97371784       0.39846916
C        1.43771533       1.35639578       1.84728466
C       -0.04508612       1.34670725       1.78873422
H       -0.43517729       1.87629867      -0.24946554
H       -1.65412374       0.72958528       0.56460724
H       -0.57349417      -0.96083397      -0.48710913
H        2.01486251      -1.02541137      -0.57693284
H        3.14037081       0.75050648       0.45168931
H        1.93913422       1.90881225      -0.30631061
H        1.85728944       0.54666660       2.52521567
H        1.81561874       2.30703311       2.10800548
H       -0.37829539       2.34356553       2.05482651
H       -0.38610054       0.53468706       2.53279659
