16
Properties=species:S:1:pos:R:3 energy:=T -17.822687320067=T gnorm:=T 0.000356470142=T xtb:=T 6.7.1=T (edcfbbe)=T pbc="F F F"
C       -0.79198536       0.97603696      -0.36765662
C        0.02236357      -0.01755584      -0.36938437
C        1.52682504      -0.06331732      -0.27067234
C        2.26147724       0.94753672      -0.30525487
C        1.30816244       1.16484762       2.71965334
C        0.12489820       1.37010373       2.70175321
H       -0.38901282       1.94277249      -0.15857362
H       -1.82448396       0.88837938      -0.22748418
H       -0.41811325      -1.14835834      -0.37566110
H        1.92691192      -1.06614566      -0.44012928
H        3.41334025       1.00689073      -0.16424019
H        1.78197234       1.96805478      -0.16314314
H        1.89701444       0.31117046       2.68157484
H        2.06878721       2.23080483       2.65971027
H       -0.48355805       2.14855088       2.61210663
H       -0.46000309       0.31166391       2.85014895
