16
Properties=species:S:1:pos:R:3 energy:=T -17.815412885497=T gnorm:=T 0.000359351609=T xtb:=T 6.7.1=T (edcfbbe)=T pbc="F F F"
C       -0.77649418       0.92095372       0.11448820
C        0.02533395      -0.07976275      -0.24783752
C        1.41114726       0.02382948      -0.36865981
C        2.13006119       1.00457306      -0.05404740
C        1.47553150       1.15337800       2.32426444
C        0.08169774       1.27107234       2.41842415
H       -0.31235079       2.12688803      -0.04080713
H       -1.79638624       0.98426269       0.04541648
H       -0.47815226      -1.05565376      -0.41525781
H        1.86722290      -1.06069075      -0.46462295
H        3.29298651       0.85070742       0.17448778
H        1.88986813       2.06643979      -0.02716440
H        1.92931762       0.40250081       2.52704450
H        1.99525038       2.11501136       2.39352695
H       -0.54308505       2.15991535       2.24139085
H       -0.53167728       0.36294381       2.49246686
