16
Properties=species:S:1:pos:R:3 energy:=T -17.813738202088=T gnorm:=T 0.000438383854=T xtb:=T 6.7.1=T (edcfbbe)=T pbc="F F F"
C       -0.63739621       1.14376722       0.19587154
C        0.08672923      -0.06190460      -0.36689873
C        1.48193400      -0.06605980      -0.24177151
C        2.15050152       0.97210185       0.04239721
C        1.46624548       1.30941930       2.18207758
C        0.07930817       1.31598393       2.14331035
H       -0.33965543       1.93683710       0.03186817
H       -1.73842279       0.91349702       0.11182672
H       -0.48556616      -0.95025265      -0.42344171
H        1.90672091      -0.97551742      -0.48992743
H        3.22477683       0.98893200       0.17422536
H        1.72064447       2.03420396      -0.05864023
H        1.93769735       0.34402414       2.50064131
H        1.89335867       2.09696344       2.32087956
H       -0.41493812       2.24039270       2.22901778
H       -0.41231480       0.38329841       2.48288672
