16
Properties=species:S:1:pos:R:3 energy:=T -17.834185856637=T gnorm:=T 0.000899460021=T xtb:=T 6.7.1=T (edcfbbe)=T pbc="F F F"
C       -0.75166927       1.00377002       0.18714450
C        0.19022125      -0.13302565      -0.18753815
C        1.36926438      -0.16500216      -0.20698308
C        2.16902845       0.90690427       0.24553083
C        1.49125154       1.20624756       2.11078056
C        0.03195767       1.21425200       2.06038439
H       -0.39355064       1.97139050      -0.22368682
H       -1.73663363       0.82300711       0.31884010
H       -0.49127094      -1.09395600      -0.41870358
H        2.07307365      -0.94623750      -0.55757043
H        3.27952805       0.93018871       0.31076238
H        1.78023497       1.98790395      -0.05377712
H        1.96973230       0.36150042       2.49541484
H        1.91312151       2.21966409       2.42907668
H       -0.53946285       2.18294052       2.28825484
H       -0.51707465       0.41231900       2.57174638
