16
Properties=species:S:1:pos:R:3 energy:=T -17.815412885497=T gnorm:=T 0.000359351609=T xtb:=T 6.7.1=T (edcfbbe)=T pbc="F F F"
C       -0.67798104       0.99371807       0.04094296
C        0.09741112      -0.05161437      -0.21690346
C        1.47607169      -0.15981024      -0.30737051
C        2.18246105       1.04894867      -0.05784408
C        1.37850469       1.18941518       2.36755374
C        0.07872100       1.30402663       2.41700243
H       -0.31529075       2.02731820      -0.00247425
H       -1.79311747       1.03537140      -0.07822253
H       -0.46630689      -1.00556169      -0.30700747
H        1.87032247      -1.00352362      -0.32286278
H        3.25254428       0.83099440       0.04756924
H        1.73307984       2.05158869      -0.05923345
H        2.07339055       0.35115056       2.47643978
H        1.94188900       2.09649046       2.36557228
H       -0.40438429       2.14838783       2.39724523
H       -0.54471626       0.36104044       2.66038684
