16
Properties=species:S:1:pos:R:3 energy:=T -17.877429643677=T gnorm:=T 0.000779366901=T xtb:=T 6.7.1=T (edcfbbe)=T pbc="F F F"
C       -0.60060609       0.93713475       0.32075614
C        0.02865933      -0.09600438      -0.17773753
C        1.33839252      -0.07732185      -0.29551520
C        2.19248920       1.00934440       0.25628876
C        1.41113451       1.26506002       1.98882081
C       -0.05314083       1.31649488       1.90722084
H       -0.42568319       1.93104497      -0.30381747
H       -1.70677158       0.78185546       0.26617961
H       -0.53456907      -1.03626318      -0.48750019
H        1.93580316      -0.93497090      -0.45591327
H        3.25634544       0.93531805       0.43529823
H        1.85885930       1.96961678      -0.13558403
H        1.92221104       0.45579158       2.46935526
H        1.95574373       2.25464586       2.19353518
H       -0.44327181       2.27674938       2.26442765
H       -0.39522317       0.51522816       2.47465183
