16
Properties=species:S:1:pos:R:3 energy:=T -17.924819342926=T gnorm:=T 0.000932102438=T xtb:=T 6.7.1=T (edcfbbe)=T pbc="F F F"
C       -0.67493010       0.97668471       0.35859043
C        0.07566114      -0.14623669      -0.20949259
C        1.33765846      -0.20526940      -0.17106411
C        2.09302359       0.98900259       0.44375153
C        1.42212001       1.12179420       1.86861227
C        0.04329152       1.19868735       1.79373291
H       -0.45949290       1.92897494      -0.15627898
H       -1.62958229       0.82050950       0.54574136
H       -0.49436330      -1.01351213      -0.50651881
H        2.01367323      -0.93112846      -0.59904844
H        3.22276994       0.76281866       0.54419969
H        1.78294973       1.81468009      -0.15174710
H        1.83471961       0.52357669       2.42290254
H        1.96896291       2.27500449       2.18335028
H       -0.39604687       2.25997857       2.26678393
H       -0.39053815       0.42854407       2.50305797
