16
Properties=species:S:1:pos:R:3 energy:=T -17.821683480713=T gnorm:=T 0.000421170293=T xtb:=T 6.7.1=T (edcfbbe)=T pbc="F F F"
C       -0.76224611       0.96274396      -0.20610277
C        0.01850470      -0.06835001      -0.33638956
C        1.56686326      -0.06273345      -0.36555587
C        2.28283659       1.04876021      -0.12364252
C        1.48274737       1.21015291       2.64168930
C        0.13227996       1.25673800       2.60134272
H       -0.51557609       1.97567193      -0.03248724
H       -1.92883930       0.89952458      -0.15413832
H       -0.42297036      -0.95861411      -0.48662963
H        1.92363829      -0.99685369      -0.46435161
H        3.30832918       1.01950178      -0.10316363
H        1.86349985       1.87458534      -0.12757159
H        1.98345029       0.33268056       2.67989504
H        2.11916086       2.15622816       2.47011320
H       -0.48431686       2.15124491       2.50282734
H       -0.49865403       0.38635677       2.69491862
