16
Properties=species:S:1:pos:R:3 energy:=T -17.834185856637=T gnorm:=T 0.000899460021=T xtb:=T 6.7.1=T (edcfbbe)=T pbc="F F F"
C       -0.64704321       0.94551290       0.31995122
C        0.06380421      -0.08718440      -0.34415466
C        1.34599234      -0.17184051      -0.25059665
C        2.11046388       0.99377250       0.22752141
C        1.46660408       1.35037365       2.08236382
C       -0.05794804       1.24330781       2.20122603
H       -0.39168867       1.99138567      -0.16659176
H       -1.70546720       0.93444360       0.25573975
H       -0.50271352      -0.96227648      -0.39413644
H        2.01751137      -0.96783604      -0.49628718
H        3.17353411       0.98256025       0.22998917
H        1.81301563       1.85540891      -0.16800496
H        1.88498468       0.30106471       2.57837381
H        1.88636177       2.15650626       2.29374441
H       -0.52614473       2.28430801       2.27683495
H       -0.45620421       0.29402243       2.50330757
