60
Properties=species:S:1:pos:R:3 pbc="F F F"
O        2.15756014      -0.41744730      -2.46445665
H        2.66281104      -1.22454667      -2.69733808
H        1.38767944      -0.70006683      -1.98740808
O       -4.24634599      -0.62440955       0.11706604
H       -4.86341598      -0.24226026       0.78340184
H       -4.27648020      -0.00692553      -0.60957809
O       -1.34805436       0.02543545       1.96271849
H       -2.16060591      -0.32722656       2.36479720
H       -1.39872844       0.03700280       1.01398037
O       -2.37069271      -1.28061240      -2.86920740
H       -2.78369584      -2.07563152      -2.52984501
H       -1.89103412      -0.83970420      -2.07209821
O       -1.42161067       0.46386108      -0.96880970
H       -0.90191111       1.03355178      -1.54720650
H       -2.25524334       0.84158504      -0.84661241
O        1.08560147      -0.79834777       3.95782814
H        0.33905218      -0.52511833       3.39264255
H        1.34576814      -0.04708682       4.51877948
O       -2.51558378       1.25668517      -3.85411788
H       -2.02457402       1.51118396      -4.67466754
H       -2.51126191       0.27085868      -3.73721989
O       -3.94418173       1.77689197      -1.28620499
H       -3.36501381       1.73993002      -2.12757483
H       -3.79273095       2.68151495      -0.88500652
O        0.68627569       2.25371739       3.60827119
H        0.70477518       2.55268747       2.73692997
H       -0.05975192       1.69200996       3.67494618
O       -0.03000660       0.06857969      -4.36265785
H        0.63045512       0.05709910      -3.70641086
H       -0.52172110      -0.76190289      -4.11150078
O        0.22421787      -1.53914408      -0.09841497
H       -0.10411037      -1.60111734       0.80636663
H        0.89459319      -2.26060928      -0.20464238
O       -0.27150247      -2.67145539       2.44696633
H       -0.99158760      -2.74892000       3.01603018
H        0.40539756      -2.25587794       2.86846043
O        0.82607673       1.67205365      -1.36216793
H        1.41852322       1.25339322      -1.96366261
H        0.90057536       1.31301729      -0.39657998
O        1.45260487       0.59326576       0.93623751
H        1.11643652      -0.31995515       0.92415476
H        2.38572334       0.52911094       1.10975650
O        3.28419164      -1.29779744       2.24187230
H        2.61109291      -1.45236864       2.97341360
H        3.76887992      -0.48570592       2.45023746
O       -1.22497915       3.70356597      -2.43352089
H       -0.41105449       3.36315119      -2.02156036
H       -1.41197699       3.08058522      -3.10602069
O       -0.07653637       3.46263372       0.98142398
H       -0.10385727       2.61780486       0.49095013
H       -0.13688054       4.19862847       0.31776737
O        3.46321945       1.26415371       3.67473496
H        2.67082520       1.69770238       3.44662852
H        3.61398579       1.60183575       4.54991766
O        2.86173912      -3.06698739      -2.32599757
H        2.87975347      -2.55603598      -1.50445892
H        3.59475582      -3.72683832      -2.28543250
O        2.48121188      -2.99835827       0.46327815
H        2.21148206      -3.93506404       0.68428273
H        3.15825522      -2.62550983       1.07528316
