60
Properties=species:S:1:pos:R:3 pbc="F F F"
O       -0.37869377      -1.79241328      -2.98950749
H       -0.35911882      -2.28691944      -2.13167071
H        0.52189158      -1.86331005      -3.35156464
O       -3.64062251       2.49751841      -0.03025202
H       -3.17265657       2.70615510      -0.84733224
H       -4.55570173       2.59719544      -0.29805283
O       -2.06399846       0.05726740       2.66879370
H       -2.33656758      -0.00914030       1.69671474
H       -1.30161773       0.64500703       2.73572594
O       -2.53520330      -0.16598262      -0.23728554
H       -3.42585574      -0.20482276       0.18108175
H       -2.60381565      -0.65965984      -1.10538755
O        0.69714697      -0.19521602      -0.65695501
H        0.09152950      -0.90159735      -0.89057148
H        1.16061954       0.20370838      -1.46844520
O       -0.39538669      -2.03707912       3.63305495
H       -1.01956477      -1.39185768       3.31951439
H       -0.34874093      -1.82228631       4.63104336
O       -3.53413704       2.83907943      -2.73654520
H       -3.49912121       3.66862193      -3.20062527
H       -2.76053594       2.36598254      -3.04622569
O       -2.88777126      -1.40079000      -2.59538437
H       -3.13530182      -0.62281045      -3.01089408
H       -2.00231245      -1.59825948      -3.01932575
O        1.94261770       2.60064054       1.43802376
H        1.01755161       2.49826450       1.40207589
H        2.12995224       2.93358350       2.24723170
O       -1.44680611       1.33954687      -2.63842492
H       -1.80485626       0.79665236      -1.87738389
H       -0.88653408       2.09074812      -2.34741338
O       -0.80176813      -2.69468513      -0.62125501
H       -1.63163636      -3.12880270      -0.75188821
H       -0.17786859      -2.94806906       0.14563794
O        0.85482071      -3.36932668       1.29319386
H        0.37440103      -3.64169737       2.10681823
H        1.28831189      -2.47833778       1.46164855
O        2.15248175       1.73241567      -2.38177229
H        2.43716470       2.44229129      -2.92350923
H        2.81987342       1.65926239      -1.62391298
O        3.90259322       1.92866251      -0.30768365
H        3.31644595       2.23201398       0.38419415
H        4.04933338       1.03503311      -0.20119995
O        1.52972422      -0.94655958       1.91955866
H        0.54525330      -1.00095981       2.19995742
H        1.47822817      -0.37485166       1.10229505
O       -0.03416528       3.35542106      -1.51553624
H        0.77712025       2.75697695      -1.63246467
H       -0.36727768       3.13208475      -0.61755954
O       -0.73564203       1.69892956       0.68740751
H       -0.26845424       0.99581473       0.27308587
H       -1.57676780       1.72573242       0.21993250
O        1.49836388       0.89165395       4.22023589
H        2.16834952       0.77572542       4.87099184
H        1.71786019       0.21306378       3.59227677
O        3.62544277      -0.77753715      -0.62042201
H        4.12946818      -1.62556416      -0.79167534
H        2.64601726      -0.84261943      -0.38511746
O        3.38228556      -3.74100165      -0.01881332
H        2.54437904      -3.77650708       0.41773467
H        3.82653946      -4.52984254       0.38880796
