60
Properties=species:S:1:pos:R:3 pbc="F F F"
O        1.82185779      -2.74780757      -2.13354750
H        0.90749029      -3.03186933      -2.00840910
H        2.29332075      -3.30322851      -1.49622217
O       -4.81084296       3.16338834       1.12907083
H       -3.98835378       2.73627641       1.07008246
H       -4.91213203       3.61650359       0.32708452
O       -2.10242769       0.42920658       3.12792801
H       -1.65731701       0.36037878       2.26851722
H       -2.83032941       1.00601927       2.92330189
O       -3.71207708      -1.80446015      -0.08731824
H       -4.50231251      -2.17898977       0.39011561
H       -4.09616050      -1.30356987      -0.87191207
O        1.45683454       0.07755724      -2.45960112
H        1.55201554      -0.85830937      -2.26238285
H        2.41015825       0.30780700      -2.75246019
O       -0.92429354      -2.27975360       3.65492325
H       -1.42709005      -1.52331640       3.46563049
H       -1.29138129      -2.75158213       4.36483191
O       -4.34947060       2.87487212      -2.04956718
H       -4.16839828       1.92346646      -2.03957273
H       -4.65768337       3.14549609      -2.88129810
O       -3.25693155       0.07034151      -2.36082001
H       -2.43570013       0.57270552      -2.44164231
H       -3.33702890      -0.54114180      -3.12143154
O        0.63129450       2.92649204       2.06958811
H        1.45766286       2.50752592       2.39432007
H       -0.06896861       2.18827063       2.14646937
O       -0.94542020       1.48291459      -1.85268234
H       -0.16673548       1.07583277      -2.13157700
H       -0.91814103       2.45105396      -1.76677934
O       -0.87229874      -2.67105204      -0.83783540
H       -1.79442488      -2.29757568      -0.74281925
H       -0.65501918      -2.94661126       0.05673150
O        0.76350898      -2.61718713       1.50889178
H        0.49427252      -2.47532207       2.38596942
H        0.87138978      -1.68868806       1.16123899
O        4.25905325       1.21605217      -3.16454744
H        4.52863011       2.05438745      -3.57091835
H        4.28359828       1.35783037      -2.19498970
O        3.60539654       1.67744887      -0.55770387
H        3.48593722       2.09390204       0.29722876
H        3.61184829       0.76195712      -0.34573134
O        1.17925546      -0.09985743       0.28958515
H        0.38458867       0.38009712       0.57507150
H        1.31828438       0.14043247      -0.63648853
O        0.24062413       3.68687857      -0.94747027
H        0.93292970       3.18247121      -0.55142448
H       -0.12527359       4.12978713      -0.24179497
O       -1.59348629       0.29438455       0.37276755
H       -2.10103195      -0.44912865       0.07850521
H       -1.55011150       0.90148816      -0.54571821
O        2.93802823       0.95313552       2.11868000
H        3.82240902       0.68667690       2.29452263
H        2.41680334       0.27188601       1.62882831
O        4.07746548      -0.98278851       0.60491383
H        3.35155498      -1.67747771       0.61655992
H        4.53006363      -1.03290466      -0.17103954
O        2.77954256      -3.81522473       0.15981395
H        2.03329713      -3.46897667       0.73358723
H        2.93406586      -4.78149782       0.25640240
