60
Properties=species:S:1:pos:R:3 pbc="F F F"
O        0.77315227      -2.46357407      -2.50673877
H       -0.02380302      -3.01072368      -2.29324373
H        1.48545016      -2.82522509      -1.95385815
O       -4.29501055       2.83568103       0.55818111
H       -4.15385877       3.73564721       0.76278060
H       -4.27750657       2.80108973      -0.34877188
O       -2.38875086       0.10859241       3.10024744
H       -2.10193588       0.39486705       2.15053636
H       -2.80923513       0.85920650       3.49818658
O       -2.44376286      -1.26967087      -0.11952780
H       -3.04771479      -1.62480551       0.58529082
H       -3.01590756      -0.89161224      -0.87406246
O        1.44294491       0.01760201      -1.79307567
H        1.15535830      -0.86150918      -2.16080478
H        2.11201137       0.32917415      -2.51455482
O       -0.70305774      -2.38303749       3.93081779
H       -1.00220320      -1.45898859       3.86497549
H       -1.46992775      -2.91141722       4.23524035
O       -3.99303231       3.01303337      -2.47594782
H       -3.90726771       3.68768868      -3.12518799
H       -4.68757090       2.42025113      -2.88767122
O       -3.39028931      -0.07361046      -2.49326644
H       -2.53282384       0.42945077      -2.26376962
H       -3.10291693      -0.62571126      -3.23752479
O        1.33720793       3.20138505       1.39272562
H        1.67691305       2.40538305       1.81393078
H        0.84748405       3.71130087       2.13699794
O       -1.09792835       1.11042387      -2.37465419
H       -0.19589588       0.60844219      -2.25060670
H       -0.85869307       2.04745329      -2.22850027
O       -1.05377807      -3.56088733      -0.48497481
H       -1.58053775      -2.69457037      -0.32004989
H       -0.58239419      -3.76447730       0.36502244
O        1.03866624      -2.86411915       1.61967525
H        0.60469308      -2.97620875       2.44675482
H        0.91600044      -1.93661014       1.33039576
O        3.12315078       1.95557014      -2.59601790
H        3.72093695       2.49960206      -3.11790689
H        3.47639034       1.75142111      -1.73922084
O        3.91296637       1.41737818      -0.15964878
H        3.17789986       1.16585260       0.46187663
H        4.39645529       0.61227690      -0.27637387
O        1.08183557      -0.41711471       0.77648256
H        0.25496107       0.17110418       0.72675049
H        1.47788342      -0.37933688      -0.13913869
O        0.09770932       3.37500278      -1.09854074
H        0.91548311       3.49181813      -1.50017652
H        0.35770452       3.19760409      -0.21074432
O       -1.46529663       1.22002963       0.83655398
H       -1.69058482       0.52545775       0.24525095
H       -2.01299244       1.90691510       0.53518331
O        2.13510502       1.04944752       2.85851550
H        2.53379429       0.81373909       3.70625710
H        1.86639344       0.19768896       2.55396091
O        4.37968194      -1.18985055      -0.01044281
H        3.58283842      -1.62378722       0.42639495
H        4.55316768      -1.53279276      -0.83865030
O        2.67428774      -3.35546956      -0.44702155
H        1.94694799      -3.36491550       0.22492117
H        3.24870080      -4.01507815       0.01808925
