60
Properties=species:S:1:pos:R:3 pbc="F F F"
O        1.71491934      -0.51949413      -2.69329272
H        2.52751702      -1.01659854      -2.74282899
H        1.26172971      -0.92564243      -1.94101717
O       -4.00513370       0.60766250       0.42892494
H       -3.28462566       1.11101008      -0.06277427
H       -4.74565920       0.48946080      -0.12541947
O       -1.78423981       0.19686770       1.96452412
H       -1.58721917       0.46087074       1.08693348
H       -2.71016996       0.45276722       2.13169673
O       -2.61793948      -1.48889332      -1.33642370
H       -2.96822641      -1.45251101      -0.41771372
H       -2.94987767      -0.71887637      -1.77276155
O       -0.65429314       0.76249640      -0.76134917
H       -0.46381873      -0.26400813      -0.72694543
H        0.14849792       1.17776020      -0.55126605
O        0.39597732      -1.67475514       3.57084495
H       -0.47383703      -1.31982371       3.46267372
H        0.85359912      -1.24510792       4.41908328
O       -2.56887076       1.59423189      -2.49881523
H       -1.96135517       2.32376726      -2.28378631
H       -2.14662442       1.14735104      -3.21395793
O       -5.20940009       1.07303194      -2.13343874
H       -4.24964102       1.24115094      -2.29079554
H       -5.72706139       1.79621474      -2.53292911
O        0.05022752       1.93335890       2.66718353
H       -0.67938405       1.25580261       2.48860401
H        0.05991071       2.53824268       1.97402680
O       -0.72260451       0.67724092      -4.31274560
H       -0.63339735       0.47278764      -3.40579096
H        0.17601955       0.60873531      -4.77545603
O        0.23415418      -1.78780351      -0.91247707
H       -0.41033220      -2.36630069      -1.31068090
H        0.55205656      -2.07080022      -0.05308210
O        1.23340483      -2.60715186       1.26936558
H        0.78126229      -2.67934045       2.07963792
H        1.96975757      -1.98928459       1.53249677
O        1.99241172       2.17684327      -1.93437807
H        2.16496751       1.28534672      -2.22822966
H        1.94012751       1.91344910      -0.96448127
O        2.03847493       0.82083815       0.51390791
H        2.01169806       1.17230629       1.40551104
H        2.62114616       0.06102429       0.48627871
O        3.45339990      -1.20099037       2.26114354
H        3.33233814      -0.62033375       3.07009419
H        3.47506662      -2.08153248       2.51013119
O       -0.43869797       3.45024201      -1.92526352
H        0.43632880       3.07465812      -1.99433344
H       -0.44477843       4.32852893      -2.26987985
O       -0.40382155       3.74008410       0.66445509
H       -0.87909102       3.27361091      -0.10339655
H        0.27410873       4.26537698       0.29282613
O        2.34080053       1.09542423       3.87358455
H        1.42091033       1.24220155       3.41305457
H        2.39891775       1.68713272       4.57637868
O        3.00860751      -2.67130467      -1.30128753
H        3.18862794      -3.48300364      -0.82839845
H        2.11657525      -2.49194372      -1.23230428
O        3.03206838      -4.45938076       1.01401005
H        2.18756426      -3.90379021       0.94731701
H        2.89172370      -5.35278277       1.27731257
