60
Properties=species:S:1:pos:R:3 pbc="F F F"
O        0.34187198      -1.07847797      -2.01485101
H        1.30472158      -1.11244961      -2.13940204
H        0.12104858      -1.28946404      -1.11739920
O       -4.15357583      -1.79441648       0.59089355
H       -3.49609486      -1.02747448       0.39934067
H       -3.90677631      -2.53799034       0.06733266
O       -1.95254524      -0.39348750       2.65975869
H       -2.62739682      -1.01057268       2.49059261
H       -1.62545483       0.03694004       1.85181842
O       -2.15417667      -1.21230900      -3.18723571
H       -1.19023778      -1.24506097      -3.02453505
H       -2.68835618      -1.37260549      -2.33340668
O       -1.82085161       0.61185368       0.09370650
H       -0.91548032       0.78834986      -0.03433818
H       -2.34484625       1.20242532      -0.57140834
O        0.06110739      -1.38235685       3.97227781
H       -0.60952157      -0.95709284       3.37348282
H       -0.18646714      -0.99754113       4.91776125
O       -2.14951504       1.46948653      -3.78675019
H       -1.28744149       1.84868334      -3.84788360
H       -2.06783294       0.49201503      -3.78743748
O       -3.14003831       2.34455024      -1.58173478
H       -2.95175384       1.95243759      -2.39229460
H       -2.35818679       2.99546205      -1.49910659
O        0.95087571       2.62242937       2.08562877
H        0.94402989       3.46437311       1.68885044
H        0.71178627       2.01898248       1.31254326
O        0.46105829       0.55741554      -4.98467459
H        0.73868511      -0.37251291      -4.77461149
H       -0.45721767       0.45120196      -5.36679276
O        0.50911413      -2.62519950       0.29772046
H        0.07478879      -3.18817441       0.93220753
H        1.49330319      -2.66981572       0.36104098
O       -0.42317305      -3.77721566       2.70736897
H       -1.13155270      -4.01989453       3.26083079
H        0.09131835      -3.07427617       3.12374308
O        1.03286381       2.00947940      -1.62352160
H        0.72734022       1.09480499      -1.59130762
H        1.86435874       2.00545676      -2.04634358
O        1.08009722       0.18718458       0.27897071
H        0.73421548      -0.72099665       0.42337962
H        1.98932394       0.28737914       0.61622309
O        2.86394601      -1.05702812       2.44528946
H        2.24276568      -1.24639576       3.17796350
H        3.04706263      -0.13178485       2.45556097
O       -0.53730152       4.12961027      -1.79636812
H       -0.06933001       3.30440997      -1.50949913
H       -0.54648810       4.14805866      -2.73480140
O        0.33206607       4.81759539       0.98317889
H       -0.04953001       4.74492472       0.06282541
H       -0.30113504       5.25157886       1.51527473
O        3.41193150       1.51741967       2.49369603
H        2.67309603       2.11562659       2.63124499
H        4.05663682       1.69783969       3.13048834
O        2.97381624      -2.31999794      -1.87901726
H        2.56354166      -3.16906452      -1.79184255
H        3.49647577      -2.15796223      -1.01933800
O        3.24692838      -2.81671875       0.70319928
H        3.80158993      -3.53897712       1.09769776
H        3.08940296      -2.12321185       1.39238916
