60
Properties=species:S:1:pos:R:3 pbc="F F F"
O        0.18309581      -1.28760605      -2.75341320
H       -0.11765001      -1.93315008      -2.11396921
H        0.45473184      -1.67331505      -3.59806841
O       -3.47633410       2.77910423       0.02997769
H       -3.39056178       2.44386581      -0.88280406
H       -4.23575522       3.36230656       0.11987545
O       -1.00379307       0.19914230       1.85095114
H       -1.77256797      -0.09428454       1.26546992
H       -1.11347242       1.14536165       2.00692657
O       -2.75897319      -0.73018615      -0.36249089
H       -3.14062071       0.16319624      -0.40389106
H       -3.23972433      -1.22441974      -1.02175548
O        0.37474268       0.47432192      -0.68438039
H        0.15830036      -0.48092666      -0.69446118
H        0.72685433       0.86741558      -1.57577026
O       -0.63569313      -2.16476844       3.60661184
H       -0.51309185      -1.44071195       3.00329187
H       -0.09231009      -1.87144809       4.42485013
O       -4.11355043       2.73170347      -2.76018425
H       -3.70724688       3.58953824      -2.90797378
H       -3.60432139       2.12938944      -3.29655475
O       -3.59292716      -0.71715925      -3.04613409
H       -4.33275367      -0.54448613      -3.55853923
H       -2.96519403       0.08398324      -3.06148255
O        1.67223549       1.01676616       1.88550269
H        0.89369547       0.59195742       1.38673480
H        1.33546982       1.92288464       2.02031320
O       -1.64264950       0.98476202      -2.97533115
H       -1.03561573       0.23498453      -2.82761740
H       -1.08342106       1.71961699      -2.78793824
O       -0.12484445      -2.16112918      -0.39774135
H       -1.07133365      -2.11390797      -0.27680506
H        0.17317895      -2.75992559       0.37988868
O        0.73220380      -3.61481085       1.82691766
H       -0.14346334      -3.52730028       2.27498697
H        1.27219077      -2.82788322       2.16789102
O        1.98952104       1.71936792      -2.54301681
H        2.74769711       1.59567376      -3.04565865
H        2.32193292       1.99420870      -1.65404346
O        3.27363605       1.77141736      -0.30949265
H        2.78749937       1.68091640       0.50049138
H        3.55879998       0.87300605      -0.51189774
O        2.67536939      -1.87364198       2.48976908
H        2.35825074      -0.94137238       2.61525881
H        3.00235047      -1.87000607       1.57427658
O       -0.29920939       3.46163222      -2.78526144
H        0.51643876       2.98974955      -2.80959038
H       -0.28114333       3.85297303      -1.90933836
O       -0.57214137       2.65751394       0.60179240
H       -0.32142943       1.82458568       0.21139226
H       -1.48567095       2.82810996       0.22428449
O        1.59645440       0.80281710       5.29606623
H        2.38069176       0.93257330       4.80484206
H        0.96055982       1.25685373       4.72692164
O        3.23522307      -0.97119347      -0.43393656
H        3.75012089      -1.76412557      -0.46943563
H        2.71188724      -1.04916595      -1.24111081
O        3.65676635      -3.40677065       0.22369526
H        3.04336070      -3.56183739       1.02309129
H        3.69374202      -4.25078544      -0.21890310
