60
Properties=species:S:1:pos:R:3 pbc="F F F"
O       -0.02475576      -2.26991253      -2.53843008
H        0.90861830      -2.31808177      -2.82268228
H        0.02056944      -2.53440505      -1.58817199
O       -2.73225105      -2.08521276       0.47281751
H       -2.32942580      -1.22838747       0.46076915
H       -3.67503653      -1.89670631       0.57597039
O       -2.31396190      -0.56312883       3.15762480
H       -2.75198721      -1.26638254       2.60899528
H       -1.97222721       0.02471280       2.43749653
O       -2.39382604      -0.74449523      -3.60235416
H       -2.11014245      -1.55170556      -3.14459550
H       -3.30467783      -1.06458681      -3.84346505
O       -1.43681321       0.49683059       0.76756561
H       -0.55542500       0.13274989       0.44478986
H       -1.85832028       1.16633692       0.12704153
O        0.09264195      -1.16977440       3.96572326
H       -0.89458812      -0.95126178       3.63458295
H        0.27386203      -0.88845129       4.86797710
O       -1.87884793       1.89610604      -3.85555261
H       -0.99185181       1.54369877      -4.10790721
H       -2.49845682       1.22240107      -4.15436653
O       -2.21924420       2.24468681      -1.15600690
H       -2.22273274       2.31057600      -2.21052563
H       -1.94935540       3.14008455      -1.10376994
O        0.32940227       2.77831907       1.28479633
H        0.22368025       2.41036987       0.43081991
H       -0.42745233       3.18152251       1.59420929
O        0.52094488       0.06411203      -4.00447923
H        0.02264507      -0.65414217      -3.53817878
H        1.35467016      -0.34702413      -3.88395443
O        0.36969963      -3.06074147       0.27293396
H        0.21156692      -3.00280061       1.25400574
H        1.25494515      -3.42272224       0.30843350
O       -0.39764122      -3.59276002       2.83101740
H       -0.13759963      -2.86084952       3.46363870
H       -0.12523612      -4.54514399       2.98570378
O        0.36872823       1.70407595      -1.84571693
H        0.38060766       1.31095945      -2.74471224
H        0.27644518       0.86817027      -1.26718711
O        1.19855795      -0.45049910      -0.02044508
H        0.91043668      -1.37643864       0.07366175
H        1.76136456      -0.24768147       0.72468660
O        2.65504157      -1.30782260       2.76203339
H        1.74567567      -1.42912877       3.03301781
H        2.79739599      -0.31890585       2.66967741
O       -0.03153846       4.71028673      -1.64070582
H        0.25769286       3.78259012      -1.79168825
H        0.32927773       5.26609526      -2.30168756
O        0.16861334       6.04245755       0.89526046
H        0.23683916       5.54543805       0.03208152
H        0.85024424       5.81762218       1.46928391
O        2.60207906       1.26113181       1.94971641
H        1.92054954       1.92966459       2.02785872
H        3.15375088       1.53035223       1.25163142
O        2.86680671      -1.24473582      -1.84268823
H        2.32644811      -0.78196962      -1.20057224
H        3.23896197      -1.89304814      -1.33177323
O        3.27962254      -2.83477077       0.65501587
H        3.97543914      -3.33338361       1.06850133
H        2.90713007      -2.36184497       1.38183594
