60
Properties=species:S:1:pos:R:3 pbc="F F F"
O        1.44062609      -0.78932581      -2.98953894
H        2.12466615      -1.23241727      -2.47471944
H        0.61488955      -0.99244845      -2.57113647
O       -3.59875256       1.66715335       0.20474950
H       -3.13739678       1.94229131      -0.64161604
H       -4.35565219       2.26931272       0.23310502
O       -1.52108445       0.22219382       2.11434381
H       -1.29967443       0.00187974       1.21087029
H       -2.32367212       0.83651053       2.10579274
O       -2.44540161      -0.83596035      -0.75461875
H       -2.76024737      -0.34662858       0.05523524
H       -3.23764467      -0.85624884      -1.30413900
O       -0.54970901       1.09014420      -0.88815281
H       -1.34693903       0.40955375      -1.00153583
H        0.26873438       0.67834635      -0.62103429
O       -0.47691926      -2.06785354       4.04494983
H       -0.90441123      -1.35286806       3.57393484
H        0.08835899      -1.57179618       4.75096513
O       -3.05236629       2.25565737      -2.40522478
H       -2.58734881       2.99907382      -2.78803306
H       -2.49308202       1.43706588      -2.58923053
O       -4.76186387      -0.43319544      -2.34794425
H       -4.71625748       0.54376693      -2.35259746
H       -5.37077499      -0.67247559      -3.02483426
O        0.68607413       1.53483352       2.41507112
H       -0.13296554       1.05309148       2.27207434
H        0.57433294       2.30955965       1.78531240
O       -0.85686948       0.81313322      -3.47069866
H       -0.15396401       0.92872948      -2.87570708
H       -0.50915835       1.19629450      -4.33483803
O        0.13284998      -1.88128821      -0.69690948
H       -0.81986062      -1.81394539      -0.60169243
H        0.34221705      -2.01403611       0.25446292
O        0.96799265      -2.48714593       1.73311080
H        0.58581717      -2.55933048       2.59913067
H        1.85360744      -2.09273987       1.71705499
O        2.19571026       2.11332964      -2.63327018
H        2.27116813       1.26923326      -3.02399787
H        2.37368627       2.00535124      -1.68147772
O        2.00186463       0.52019209      -0.13445441
H        1.62914203       0.55704808       0.68722953
H        2.46195919      -0.31594353      -0.35283629
O        3.32698298      -1.19982445       2.20708849
H        3.38854921      -0.84926376       3.15921831
H        3.34453556      -0.45429145       1.65757556
O       -0.15518969       3.82108523      -2.80885703
H       -0.11478964       2.90428360      -2.45353988
H        0.59957781       3.88644784      -3.38403337
O       -0.67591363       3.57064581       0.70923626
H       -0.61118158       3.01800547      -0.15182082
H       -0.72619251       4.45817924       0.39700078
O        1.79803878       0.16264427       4.67218710
H        1.21435555       0.45657174       3.93747930
H        2.09110156       1.00874022       4.92486809
O        2.97223342      -1.85261213      -0.47119892
H        3.58771066      -2.56951792      -0.80438757
H        2.13690910      -2.23041933      -0.55263508
O        3.75325809      -4.58640067       0.06990072
H        3.91458362      -4.26439118       0.91261393
H        3.13686208      -5.28447055       0.25709193
