60
Properties=species:S:1:pos:R:3 pbc="F F F"
O        2.36130910      -0.26328219      -2.66035762
H        3.19239309      -0.66587115      -2.39935135
H        1.75710010      -0.65045169      -2.01796314
O       -4.47510418      -0.21124948      -0.37435045
H       -3.65009241       0.07750475       0.00109516
H       -4.89343898       0.57634114      -0.84073366
O       -1.11553976       0.07957773       1.90476507
H       -1.27996710       0.51681786       1.01385306
H       -1.65020365       0.54097130       2.59848325
O       -2.43265860      -1.33320595      -2.20522132
H       -3.34323549      -1.29471666      -1.80492885
H       -1.92209088      -0.65632968      -1.63466437
O       -0.96204441       0.58479413      -0.68356707
H       -0.34738920      -0.10324724      -0.59524385
H       -0.47901727       1.19120261      -1.26562185
O        0.78785848      -0.97944014       4.11616226
H        0.62772310      -0.06328538       3.91820336
H        1.73388490      -0.88484088       4.35658269
O       -2.97010994       1.27354245      -3.64127160
H       -2.32035788       1.47720309      -4.36820570
H       -2.70905124       0.37705277      -3.44738768
O       -4.69438419       2.11942178      -1.58431274
H       -4.13445650       1.72313239      -2.32385172
H       -4.70887477       3.10223968      -1.68241576
O        0.64003591       1.81266776       3.70361616
H        0.26017531       2.05360700       2.80821339
H       -0.01308234       2.01930202       4.35088154
O       -0.29278387      -0.05645878      -3.50986365
H        0.61428101      -0.11874962      -3.55640160
H       -0.73984461      -0.86959586      -3.29427809
O        0.36578106      -1.74927797      -1.11585404
H       -0.31545123      -2.40984013      -1.35340269
H        0.49399619      -1.96141088      -0.18036277
O        0.49165012      -2.10805578       1.62529330
H       -0.12661140      -1.74453649       2.26238043
H        1.36834763      -1.72884687       1.96766192
O        1.12655800       2.13401921      -1.80592734
H        1.39801216       1.54813979      -2.54382245
H        1.55660557       1.62744901      -1.02244901
O        1.83898710       0.76883116       0.79142411
H        1.11013498       0.73418663       1.39602584
H        2.49745777       0.09444597       1.07784482
O        3.20924794      -1.08899043       2.43225327
H        3.67951979      -0.30902142       2.84740227
H        3.29896542      -1.80336997       3.01776123
O       -1.17951382       3.47803722      -2.40573019
H       -0.49030836       3.17028519      -3.02216034
H       -1.78737178       2.74600361      -2.29141897
O       -0.42842804       2.65424978       1.05212664
H       -1.20233043       2.96853694       0.51356043
H        0.25316594       2.58296353       0.39393528
O        3.38564788       1.54592812       3.84947227
H        2.42913490       1.49326960       4.19903779
H        3.58478688       2.43633366       3.64136354
O        3.12192124      -3.06552054      -1.85595103
H        2.93907449      -3.70478231      -1.10796654
H        2.31586842      -3.03909575      -2.41961587
O        2.25053076      -3.92862581       0.79708281
H        1.45050393      -3.50445534       1.20602899
H        2.99511036      -3.32131948       0.74671102
