90
Properties=species:S:1:pos:R:3 pbc="F F F"
O       -0.66880000      -3.33827266      -4.09317468
H       -0.70140388      -4.12906572      -3.61724695
H       -0.27121410      -3.41841397      -4.91779367
O       -0.31476071      -4.82506204      -1.98380027
H       -0.89508129      -5.03757860      -1.26735954
H       -0.17974868      -3.80631919      -1.88703888
O       -1.80199122      -4.17218237       0.63679436
H       -1.21121081      -3.39474462       0.51766378
H       -1.65537592      -4.37518551       1.54306541
O       -0.55262693      -3.87460850       3.64948648
H       -0.37340452      -4.78979676       3.42022376
H        0.34572114      -3.45882091       3.53677180
O       -0.68259216      -0.14712072      -4.38357928
H       -0.64255735      -1.09574100      -4.60240306
H       -1.29647995      -0.11649580      -3.65479981
O        0.10409629      -2.25927029      -1.68200502
H        0.14847861      -2.20087060      -2.66989566
H       -0.45597529      -1.47569168      -1.44772999
O       -0.43245626      -1.29682931       1.51870323
H        0.34625912      -1.92264726       1.23361076
H       -0.07715506      -0.42856918       1.57663319
O       -2.36804960      -1.18906556       3.21979773
H       -1.58287299      -1.35450865       2.74776844
H       -2.75344191      -1.98948253       3.34199067
O       -1.73678206      -0.18913096      -1.76754624
H       -2.23088918      -0.91071267      -1.26972747
H       -1.74630669       0.64454821      -1.27748402
O       -2.98678591      -1.63138047       0.25133517
H       -2.92188069      -2.55294741       0.08134736
H       -2.36230471      -1.16908764       0.85379472
O       -2.58763390       1.82947185       2.71819617
H       -2.19909300       1.44088658       3.47787835
H       -3.50847569       1.80333756       2.69560791
O       -0.65805098       3.80855303       3.22085556
H       -0.99009495       3.16804708       2.60469430
H       -0.77353423       3.47947191       4.09736717
O        0.47712417       5.26186162      -3.20621355
H       -0.39465316       5.65561095      -3.51850633
H        0.43335561       4.37498873      -3.54956588
O        1.15680944       5.06812118      -0.43804481
H        1.45714422       5.05275790      -1.35587126
H        0.71817686       5.97462014      -0.36460360
O       -1.17448370       3.62383143      -1.05310128
H       -0.43466611       4.21264063      -0.82285901
H       -1.61839175       4.08199913      -1.75722093
O        1.61630136       3.30920671       1.52427378
H        1.09361798       3.68195247       2.33691303
H        1.36245375       3.89239330       0.76101199
O        2.80588612      -2.70858554      -2.45723677
H        2.44637995      -1.81903792      -2.51304517
H        3.60390974      -2.57477148      -2.96884452
O        2.22319150      -4.76540730      -0.78345284
H        2.42305496      -4.09799507      -1.40260360
H        1.38785939      -5.24198641      -1.11213801
O        1.58399372      -2.61187294       0.59541877
H        1.58570026      -3.49755987       0.32359408
H        1.78609852      -1.97152584      -0.07002733
O        1.75623889      -2.29936512       3.38423084
H        1.91919279      -1.44820254       3.13469795
H        2.09834753      -2.87005584       2.74467720
O        1.82073248      -0.31629901      -3.27001004
H        1.84283149      -0.06167514      -2.33560864
H        0.86408177      -0.19691671      -3.61154836
O        2.10258503       0.36198984      -0.44637466
H        2.76564688       0.69580163       0.10968604
H        1.24201875       0.59683495       0.04425825
O        1.17829934       0.51551678       2.35937773
H        0.74406152       0.62431791       3.22816008
H        1.43080215       1.45218265       2.07619961
O       -0.05874060      -0.40482521       4.73342481
H       -0.93777576      -0.51992872       4.29259349
H        0.37179869      -1.29565282       4.86103814
O       -2.35699512       4.46655810      -3.52604304
H       -1.83124730       4.03192457      -4.23248446
H       -3.09661635       3.84738392      -3.41566621
O        0.83509749       2.38767857      -2.40060726
H        1.28863428       1.85665927      -1.76115602
H        0.13626585       2.81222845      -1.92532683
O       -1.07113049       1.24108504       0.46716231
H       -1.75986696       1.09509932       1.12933933
H       -1.31773003       2.12870556       0.02123540
O       -0.73607576       1.95712127       5.59094401
H       -1.18533995       2.20418121       6.38624603
H       -0.37158825       1.07913321       5.69845645
O       -0.77346099       2.64123205      -4.86945376
H       -1.27007028       2.18857342      -5.54536398
H       -0.29617129       1.88766665      -4.49279844
O        3.82461776       1.54890627       1.69214659
H        3.20519558       2.23831216       1.78897184
H        4.44964857       1.79159788       1.02949814
