90
Properties=species:S:1:pos:R:3 pbc="F F F"
O       -2.63338357      -2.42615993      -4.64467314
H       -1.79093536      -2.50805475      -4.11312846
H       -3.32135197      -2.73342042      -4.11445693
O       -1.65656224      -4.69525008      -1.07677417
H       -1.49250657      -4.48265956      -0.14156086
H       -1.90174899      -3.80211380      -1.43390897
O       -0.99128727      -3.88898195       1.53020866
H       -0.50105749      -3.19270633       1.04263742
H       -0.31642226      -4.24170490       2.13630184
O        0.64356988      -3.90664262       3.71916415
H        1.40018423      -4.39951624       4.08194938
H        0.80417466      -2.95483258       3.66034438
O       -0.10158251      -0.34070370      -3.95213188
H       -0.43267607      -0.54788198      -4.83777870
H       -0.81069585      -0.04082632      -3.35494138
O       -0.51566430      -2.24833594      -2.10319991
H        0.28435399      -2.61676139      -1.58973797
H       -0.13335227      -1.67137264      -2.81969861
O       -0.01613407      -1.15683313       0.77599984
H        0.93025859      -1.28300976       0.85250103
H       -0.12095716      -0.45891265       0.12085211
O       -1.73382331      -1.52957397       2.87774216
H       -0.84274195      -1.24966808       2.66265065
H       -1.79781928      -2.43354291       2.75050825
O       -2.04488051       0.44260177      -2.20485595
H       -2.52707019      -0.34701607      -2.06254062
H       -1.65437220       0.79179231      -1.39977840
O       -2.85653968      -1.68869456      -0.05624265
H       -3.31618376      -2.15799552       0.63908859
H       -2.06107917      -1.38631441       0.28761217
O       -2.91346247       0.71937896       1.89303252
H       -2.66867072      -0.02071891       2.46429617
H       -3.30566446       0.25961947       1.14573892
O       -1.94579147       3.08384724       2.23705954
H       -2.37929398       2.31646069       1.98118396
H       -2.20464842       3.36859871       3.10078809
O        0.31342720       5.36893830      -3.17258969
H       -0.63041514       5.03077401      -3.05923295
H        0.78046703       4.63767546      -3.59775473
O        1.76312646       5.12326501      -0.40872610
H        0.86022182       5.09909927      -0.88799875
H        2.06509927       5.95848103      -0.70401278
O       -1.00351137       4.08294237      -0.28690375
H       -1.61511689       4.43543124       0.38556614
H       -1.50073047       4.20122601      -1.10721676
O        0.94133062       3.34567047       1.68740848
H       -0.00327027       3.48276403       1.76379332
H        1.11614234       3.98027784       0.86862442
O        3.46430819      -3.98953644      -3.11023198
H        2.94175461      -3.21318475      -3.31051070
H        4.38007557      -3.92864401      -3.28144375
O        1.62892057      -3.96755756      -0.75164254
H        1.88432938      -4.04544439      -1.63613241
H        0.79823278      -4.54224129      -0.75075160
O        2.65543983      -1.65474040       0.72461352
H        2.50933944      -2.61297044       0.60969082
H        2.94457559      -1.36298729      -0.11249010
O        1.51014426      -1.38861326       3.68523723
H        1.35570730      -0.47814008       3.29525244
H        2.44936344      -1.32921124       3.50102869
O        2.21951095      -1.60412658      -3.36799280
H        2.27949202      -1.17214023      -2.51521469
H        1.65993766      -1.07455451      -3.89962450
O        1.80458767       0.25743500      -1.31610394
H        2.24587236       0.71737134      -0.54558836
H        0.91279684       0.58040262      -1.36862898
O        1.36659438       1.21782668       3.70489633
H        0.86694942       1.52777866       4.45916799
H        1.26901920       2.00727044       3.19361798
O       -0.80041656      -0.91992750       5.61555861
H       -1.49001359      -1.04425823       4.89559166
H        0.02585989      -1.03803928       5.08868751
O       -2.01103042       3.45482725      -2.69303967
H       -2.12063327       3.24870355      -3.62137293
H       -1.74025467       2.70066604      -2.15838636
O        2.19112653       2.94292545      -2.24479471
H        2.43772308       2.01588506      -1.93878198
H        2.52793557       3.60709289      -1.62228142
O       -0.89163544       1.51123732      -0.07199059
H       -1.63370457       1.37958229       0.54523040
H       -0.76182227       2.48591914      -0.26771793
O       -0.76568618       1.78733558       5.47971569
H       -1.44486347       2.31726536       5.89710275
H       -0.96744556       0.81812791       5.60214013
O        0.12757651       2.52819319      -4.17258581
H       -0.04809597       1.57125641      -4.34614248
H        0.75803661       2.57948928      -3.45336393
O        2.64732689       1.45374251       0.81849408
H        3.33668365       1.23640216       1.49004238
H        1.91240749       2.02511560       1.24805494
