90
Properties=species:S:1:pos:R:3 pbc="F F F"
O       -0.18535339      -3.77843696      -4.83172696
H       -0.26780998      -4.13694146      -3.98162725
H        0.84193589      -3.74766590      -4.84021944
O       -0.29265225      -4.28634046      -2.11156315
H       -1.00416836      -4.58918741      -1.52402042
H       -0.40686776      -3.32281910      -2.06288935
O       -1.42692989      -3.93973497       1.43196974
H       -0.45035567      -3.96078297       1.42377497
H       -1.66866514      -4.33241769       2.26585653
O       -1.34633096      -3.78315174       4.17139430
H       -1.66757258      -3.07545535       4.70052435
H       -0.40380531      -3.68591886       3.99737696
O       -0.09391012      -0.98753860      -4.08570463
H       -0.07986625      -1.80145960      -4.59157446
H       -1.02517164      -0.83288629      -3.91650939
O       -0.08041127      -1.57921562      -1.38503603
H        0.48908544      -0.89436689      -0.98065210
H       -0.94828184      -1.06012006      -1.59778983
O       -1.62937295      -1.30939865       1.44337395
H       -1.60229269      -2.22848797       1.25972726
H       -0.71540955      -1.07465337       1.56027540
O       -2.02553193      -0.91969773       4.36334504
H       -2.08068310      -1.33606251       3.50332119
H       -1.95674775      -0.01020923       4.14589664
O       -2.23023543       0.03413007      -1.92471785
H       -3.03314789      -0.23235509      -1.43180775
H       -1.70065533       0.71894976      -1.42365974
O       -4.14740776      -1.08439156       0.30792017
H       -4.52023130      -1.95445550       0.17723382
H       -3.22883650      -1.23724820       0.50861680
O       -3.25314336       0.77197077       2.12518335
H       -2.71305880       0.01527011       2.20687088
H       -3.99201164       0.65661630       1.51473104
O       -0.72908675       2.31495991       2.20632109
H       -1.61756766       1.94944255       2.08255816
H       -0.45817357       2.58603077       3.08927993
O        0.39144302       5.08495976      -2.99872919
H       -0.41702917       4.59113705      -3.04997679
H        1.11867304       4.45057449      -2.94934853
O        0.32432680       6.29948624      -0.67731745
H        0.23067735       5.97018147      -1.62023100
H        1.14594684       6.87237752      -0.69499850
O       -1.58918319       4.45437397       0.74047331
H       -1.29590395       5.28412059       0.36102596
H       -1.66045811       4.57420257       1.64985128
O        1.54760744       4.21589352       1.32453313
H        0.76118841       3.73779501       1.23487453
H        1.34591311       5.03072852       0.88760016
O        3.03736602      -3.20762802      -4.60476586
H        2.83458927      -2.36024966      -4.20186738
H        3.97667455      -3.29377076      -4.86697172
O        2.13218689      -4.01181350      -0.72610769
H        2.35662942      -3.23101875      -1.21902487
H        1.32822523      -4.29948004      -1.22054290
O        1.22262171      -2.53209304       1.24225830
H        1.43913424      -2.99826075       0.32405294
H        1.57671505      -1.69018055       0.94027151
O        1.35919308      -3.48964118       3.65229993
H        1.99832474      -4.18813237       3.66890583
H        1.38806638      -3.04243164       2.77179806
O        2.41427924      -0.72409054      -3.37230935
H        2.60034350       0.11346948      -3.03832236
H        1.51105345      -0.94389787      -3.19736518
O        2.03892660      -0.03777028      -0.27920492
H        1.96011010       0.22375121       0.71148159
H        2.08209368       0.83961075      -0.77338498
O        0.61034323       0.07728129       2.34117500
H        0.88385561       0.03676834       3.28151539
H        0.02547771       0.83945747       2.24168564
O        0.51501898      -0.70348951       4.90214534
H       -0.41972688      -1.03906444       4.96755989
H        0.94397601      -1.48225500       4.66326138
O       -1.69743940       2.82963769      -3.31633026
H       -0.73979751       2.50673950      -3.44620601
H       -2.10633311       2.13946109      -3.80257599
O        1.78271118       2.66533064      -1.42300018
H        2.32830322       2.88486240      -0.67484445
H        0.88895175       2.42065373      -1.16540447
O       -0.93510658       2.09692200      -0.75242326
H       -1.14521553       2.65356364      -0.03318026
H       -1.14700382       2.62478831      -1.55639327
O       -0.00196193       2.44768204       4.89409353
H        0.72516975       3.07544412       4.83136009
H        0.26717202       1.80077769       5.60810474
O        0.64077657       1.91525841      -3.93616737
H        0.63022986       0.98510069      -4.12914475
H        1.45117033       2.03960060      -3.33874080
O        3.91303302       3.03843228       0.34807205
H        3.25765414       3.28701546       0.97198203
H        4.36396166       3.86505448       0.21889651
