90
Properties=species:S:1:pos:R:3 pbc="F F F"
O       -0.51721429      -3.67551892      -4.06406459
H       -0.47958129      -3.77260098      -3.14884204
H        0.33447479      -3.81653774      -4.46908761
O       -0.34003627      -3.32291420      -1.28066375
H       -0.77129939      -3.70219104      -0.49617037
H       -0.42371152      -2.34056173      -1.25314241
O       -1.24381762      -3.53725761       1.62593259
H       -0.28083619      -3.62989485       1.53639935
H       -1.48245540      -3.51156727       2.55929080
O       -1.22952251      -3.56455966       4.22467891
H       -0.39442658      -3.99063444       4.21669316
H       -1.14966820      -2.63781577       4.28115885
O       -0.83775684      -0.76218189      -4.06842352
H       -0.65720813      -1.75666390      -4.18364437
H       -1.37247166      -0.31567945      -4.74281705
O       -0.26029228      -0.68536298      -1.48897346
H        0.74333440      -0.56755289      -1.44335747
H       -0.45268603      -0.61802683      -2.46307928
O       -1.69051879      -1.15598248       1.00970649
H       -1.65843443      -2.04889317       1.08943223
H       -0.74231623      -0.87226662       0.83938775
O       -1.62066759      -1.00267205       3.62984726
H       -1.71192111      -0.96907893       2.64638484
H       -2.05151056      -0.08785238       3.92711825
O       -2.15704927       2.89899190      -2.63226141
H       -2.43957642       2.35978260      -1.92462552
H       -2.39820511       2.42379506      -3.40954930
O       -3.12264919       0.30592212      -0.78450830
H       -3.81479508      -0.33451210      -0.89989674
H       -2.28922544      -0.12255574      -0.53470685
O       -2.65212274       1.60929430       1.69971873
H       -2.72588934       1.12405783       0.84133155
H       -2.62802618       2.54972487       1.40117873
O       -0.42359171       1.65726183       3.71920582
H       -1.36069477       1.71487144       3.78991248
H        0.05261718       1.35556800       4.48835633
O        0.34699699       4.28007333      -3.27033593
H        0.72369223       3.54155285      -2.78483834
H       -0.59539961       4.12336709      -3.26326429
O       -0.17030208       5.29656863      -0.67929300
H        0.01294204       5.13508819      -1.58839662
H        0.46041551       4.68822297      -0.24898416
O       -2.52419044       3.83744857       0.22915431
H       -2.00077094       4.67615977       0.05457578
H       -2.74245400       3.32690407      -0.53011017
O       -0.14619034       3.98485861       2.32584457
H       -0.43134472       3.35350453       3.00335773
H       -0.95958792       4.23402515       1.91274661
O        2.31193538      -4.31100790      -3.71465202
H        2.19118137      -3.40428973      -3.50848242
H        2.67118870      -4.36820455      -4.64603847
O        2.33082938      -3.77798113      -0.61705346
H        2.43286886      -4.75368931      -0.91650386
H        1.50437027      -3.70256938      -1.02714925
O        1.37643235      -2.36930097       1.33878976
H        1.99815100      -2.58383710       0.68492363
H        1.37259021      -1.46936583       1.60469218
O        1.67002793      -3.95891477       3.75203065
H        1.92385189      -4.95883853       3.64571962
H        1.61400708      -3.53952698       2.78661986
O        1.76553005      -1.44353510      -3.61659566
H        2.08778208      -0.89750844      -2.97213491
H        1.33090567      -0.91578871      -4.26458999
O        2.43792264      -0.02539689      -1.25051474
H        2.98727213      -0.22991928      -0.46602239
H        2.12766043       0.83554081      -1.05135119
O        1.78018488       0.15865358       1.98630430
H        1.81188713      -0.03403539       2.93083918
H        1.01774348       0.75112792       1.75664231
O        1.10644211      -0.93457316       4.48566802
H        0.26320097      -0.84462571       4.06433435
H        1.36841164      -1.83047179       4.26395155
O       -1.10657089       1.63924488      -5.21377152
H       -0.18104370       1.80679899      -5.05525742
H       -1.19113698       1.70801093      -6.15369688
O        1.06643620       2.26227050      -1.42078185
H        1.66682647       2.67307434      -0.79669532
H        0.30397811       1.81971945      -1.02656443
O       -0.12356679       1.62940057       0.97644586
H        0.11008599       2.54900855       1.25254068
H       -0.99916490       1.59325344       1.46009230
O        0.58393618       1.22913897       6.27138653
H        0.72436340       0.24627822       6.03997270
H        0.58114224       1.44023201       7.19307195
O        1.59825537       1.97843602      -4.56734688
H        1.70202438       2.91079047      -4.62394067
H        1.52268560       1.78305730      -3.64768952
O        2.11211901       3.79209819       0.55739576
H        2.19690816       3.33369319       1.43573986
H        1.94236947       4.69189545       0.78057199
