90
Properties=species:S:1:pos:R:3 pbc="F F F"
O        0.55533646      -3.01943690      -4.67800021
H        0.25473935      -3.59944996      -4.02381274
H        1.42180698      -3.21923793      -5.11837876
O       -0.21189252      -4.62281341      -2.49687405
H       -0.88899583      -5.28424753      -2.71412601
H       -0.50511986      -4.18060407      -1.70228249
O       -0.71176037      -4.16162854       1.16861837
H        0.08785090      -3.68284224       1.03564234
H       -1.07510799      -3.97568084       2.03921624
O       -1.21192743      -3.43809138       3.91245432
H       -1.41092763      -4.31649958       4.16471215
H       -0.23039329      -3.42340519       3.86984742
O       -0.29719427      -0.47682705      -3.67504056
H       -0.30052150      -1.26390800      -4.24670041
H       -0.74055866      -0.68026603      -2.83076055
O       -0.67100919      -2.25882249      -1.00995218
H        0.08133732      -1.86026192      -1.46624928
H       -1.45558059      -1.84142305      -1.35677057
O       -1.31787750      -1.11778182       1.49794721
H       -1.14730903      -2.01525308       1.04804133
H       -0.52848587      -0.60017982       1.34017379
O       -2.44561413      -0.41801384       3.98288973
H       -2.26638795      -0.75184295       3.07540519
H       -2.83367200      -1.16510879       4.63710631
O       -2.41544306      -0.18553181      -1.86614321
H       -3.25428571      -0.37128381      -1.39419429
H       -2.22350857       0.77471055      -1.50731751
O       -3.65206269      -1.76096021       0.00950524
H       -3.54857543      -2.71044221       0.02839212
H       -2.91270976      -1.31993532       0.41983430
O       -2.63681764       1.44182736       1.96048617
H       -3.13487985       1.32486051       2.72776660
H       -2.34595571       0.61640740       1.55953822
O       -0.34774843       2.87180604       2.91052130
H       -1.18000001       2.70078559       2.42850302
H       -0.36975770       2.86770152       3.85826413
O        0.96240691       4.71190898      -3.03002733
H        0.10262155       4.49081694      -3.50947207
H        1.35172851       3.84349923      -2.76371882
O        0.53522286       6.12203436      -0.78508894
H        0.66446053       5.57517611      -1.58720247
H        0.43742188       7.07735467      -1.07609177
O       -1.95051870       5.03351571       0.30349612
H       -1.13790941       5.48602382      -0.00141665
H       -2.47921568       5.13480801      -0.45525501
O        1.69864616       4.22448763       1.18229149
H        1.09626812       4.15652237       1.90939594
H        1.39936351       4.92679699       0.58366415
O        3.48873401      -3.42951588      -3.93117311
H        2.88218939      -2.74218506      -3.75627344
H        4.15916519      -3.16985121      -3.26467875
O        2.37357081      -4.25760537      -1.42417363
H        2.78936982      -3.97693276      -2.23230778
H        1.45413384      -4.48870190      -1.69440166
O        1.74822563      -3.05841023       1.01207735
H        1.94133489      -3.81801814       0.33428415
H        1.81797589      -2.20061313       0.55681694
O        1.63641063      -2.76836031       3.64273823
H        2.57843221      -2.71304350       4.12642115
H        1.81005015      -2.61938155       2.71025964
O        1.86184814      -1.59462054      -2.42099089
H        1.99748686      -1.10676764      -1.62954133
H        1.31033958      -1.00964672      -2.99313742
O        1.35002727      -0.25736365      -0.21190331
H        1.67570655       0.66157538      -0.59362658
H        1.31201770       0.05114007       0.79127918
O        0.63111143       0.46197341       2.30173602
H        0.46214977       0.15535182       3.20009446
H        0.39226816       1.46518271       2.42327786
O        0.20860113      -0.74903055       4.62324128
H       -0.71125388      -0.94519848       4.79844542
H        0.78196477      -1.50435514       4.22175830
O       -2.01101475       3.77928947      -2.86875447
H       -1.48480925       3.36701185      -3.61808378
H       -2.93836415       3.65155585      -2.96418654
O        1.48041708       2.51928208      -1.58172421
H        2.20619690       2.45209268      -0.96412905
H        0.63679535       2.70778315      -1.10646165
O       -1.05037226       2.37704141      -0.40742364
H       -0.66867503       2.13600975       0.44811146
H       -1.45290904       3.30843444      -0.32723573
O       -0.04402628       1.92102287       5.52772205
H       -0.83900338       1.42501996       5.79351804
H        0.56693371       1.24168856       5.33264514
O       -0.46695264       2.23322156      -4.72416010
H       -0.39798596       1.40930131      -4.21613720
H        0.46476247       2.41772870      -5.02601761
O        3.26083824       1.94480828       0.17949423
H        3.11224159       2.76268551       0.66822482
H        4.15803597       1.93166534      -0.09901685
