90
Properties=species:S:1:pos:R:3 pbc="F F F"
O       -2.62443282      -2.36582674      -3.91480416
H       -2.54304369      -2.63747935      -3.00773310
H       -2.30887851      -3.10714195      -4.37406169
O       -1.83796632      -4.66338501      -0.88856411
H       -1.67390069      -4.24462973      -0.01842825
H       -1.02185524      -4.67923544      -1.35851875
O       -0.91592765      -3.41746166       1.37176770
H       -0.49096682      -2.62385199       1.06400465
H       -0.24132565      -3.83750979       1.93834039
O        1.15764357      -3.75156616       2.94749975
H        0.57285363      -3.83905109       3.73391456
H        1.51721869      -2.85258311       3.12878402
O       -0.23288059      -0.09663331      -3.92280107
H       -0.73396006      -0.74004577      -4.49606690
H       -0.96582781       0.18978970      -3.24628907
O       -0.35529828      -2.18400323      -1.70813406
H        0.40548896      -2.74705817      -1.37244579
H       -0.10518453      -1.61402627      -2.51111991
O        0.53135729      -1.05895140       0.75760964
H        1.10815299      -0.52831204       1.30476347
H        0.75138222      -0.90566554      -0.17752095
O       -1.91394330      -0.84303096       2.28609814
H       -1.19272726      -0.64895126       1.63871944
H       -2.21540205      -1.73827868       1.99358446
O       -2.08502489       0.27038396      -1.87956722
H       -2.46986705      -0.58544458      -1.64536408
H       -1.41157241       0.50872992      -1.24420228
O       -3.01584867      -2.25646872      -0.60036402
H       -3.68231640      -2.93720050      -0.37639899
H       -2.31274629      -2.71997048      -1.04120614
O       -3.46671190       1.10828683       1.29877753
H       -3.06233300       0.31551727       1.72694703
H       -4.12069828       0.88253469       0.68355654
O       -1.87411766       2.93599154       2.97564933
H       -2.55951585       2.47943119       2.53865768
H       -1.65135366       2.20787153       3.60747211
O        1.00852153       5.84525521      -3.25543169
H        1.03205556       6.33174514      -4.13793589
H        0.63455040       4.97492956      -3.50843702
O        0.96072623       5.02391659      -0.32639987
H        0.10758128       4.66366699      -0.47124022
H        1.10605505       5.74690782      -1.04269090
O       -1.62583256       4.01153015      -0.68051795
H       -2.26580257       3.73350644      -0.01121374
H       -1.91709741       3.57073393      -1.53871897
O        0.92619552       3.20905826       1.76782590
H        0.03729515       3.37099598       2.10429889
H        1.04843258       3.94081949       1.18054341
O        1.98407517      -4.28268195      -3.05759506
H        2.68421175      -3.84906879      -3.50145187
H        1.32375693      -3.59559570      -3.05980880
O        1.37899598      -3.93087511      -0.11902627
H        1.83249185      -4.44353630      -0.76883598
H        1.67028417      -4.40762277       0.69488564
O        3.47507422      -2.14624054       1.07249736
H        2.84966312      -2.72636379       0.69198441
H        3.24701624      -1.30962731       0.73265160
O        2.26185526      -1.02828153       3.58755150
H        2.24874220      -0.02238491       3.64572063
H        2.69413745      -1.17097832       2.71814582
O        2.34537812      -1.52655152      -3.43346940
H        2.43461961      -0.83127997      -2.80468745
H        1.88371709      -1.13698118      -4.16562306
O        1.62065418       0.45935080      -1.61226228
H        1.92631580       1.06484868      -0.90340886
H        0.71292660       0.63903057      -1.90455836
O        1.61177564       1.68376114       4.21567618
H        0.72607483       1.58962470       4.51779389
H        1.83437556       2.59993169       4.08462067
O       -0.29950456      -1.07791099       4.54636280
H       -0.86947128      -1.01766000       3.75359432
H        0.66248884      -1.36324928       4.26169455
O       -2.28216690       2.85437873      -3.03814841
H       -1.44642650       2.49751964      -3.41550151
H       -2.74585504       2.08863415      -2.70400058
O        2.67366669       2.90936719      -1.64604467
H        3.55412796       3.05287765      -1.84610722
H        2.28307678       3.70945461      -1.28020511
O       -0.45767079       1.58760533      -0.12547938
H       -1.14970368       1.21840286       0.38976674
H        0.16424272       2.16772765       0.31007593
O       -1.36523756       1.41978760       5.08747645
H       -1.78698313       1.35829668       5.96612715
H       -0.91702905       0.56744442       4.99841584
O        0.60116951       2.40778329      -3.66193519
H        0.44896644       1.70584275      -4.36367868
H        1.24782370       1.99270603      -3.09087588
O        2.12550538       0.98634462       1.24048598
H        3.05737462       1.30548454       1.35395798
H        1.62477138       1.70047490       1.62197020
