90
Properties=species:S:1:pos:R:3 pbc="F F F"
O       -0.56349400      -3.51437904      -3.97188723
H       -0.64684672      -3.74798833      -2.99264899
H        0.27926554      -3.90880657      -4.13249961
O       -0.07451836      -3.91802873      -1.23359324
H       -0.55888889      -4.40844403      -0.53757258
H       -0.11198115      -2.99691067      -0.91262805
O       -1.81162110      -3.47566471       1.62360519
H       -0.83009019      -3.55684821       1.47326942
H       -1.76417083      -3.65889018       2.59585766
O       -1.51259310      -4.20249171       4.16560562
H       -0.61243116      -3.84078263       4.13205201
H       -2.04410078      -3.97829315       4.97387768
O       -0.09869658      -0.97457729      -4.37051933
H       -0.51598329      -1.81729615      -4.22695124
H       -0.31823056      -0.63339483      -5.24047446
O       -0.34736750      -1.13014467      -0.70134626
H        0.62728372      -0.87417334      -0.85477988
H       -0.98192063      -0.56108122      -1.26956042
O       -2.09900091      -0.92086837       1.45673784
H       -2.20313225      -1.83638201       1.35235687
H       -1.23528411      -0.87125305       0.89832199
O       -1.45745455      -1.20310843       3.98816258
H       -1.66776543      -1.06033598       3.06680432
H       -1.72266289      -0.49956222       4.47661441
O       -1.76718836       1.42433840      -2.26468247
H       -2.39020859       0.90939062      -1.83586455
H       -1.75929856       1.21498932      -3.17195023
O       -3.43047989      -0.03780745      -0.69725669
H       -3.96496066      -0.75351072      -1.01930510
H       -3.13273328      -0.28822177       0.17358264
O       -3.58862016       1.51525580       2.33825369
H       -3.17940611       0.66033395       2.26389977
H       -4.09844429       1.80660492       1.58029217
O       -0.81661515       1.80574653       2.86534815
H       -1.69256381       2.00026774       2.56991651
H       -0.72022292       1.89688514       3.78999407
O       -0.24185776       4.30684501      -2.66027708
H        0.57558369       3.86892729      -2.68707037
H       -0.95447279       3.67073579      -2.60120420
O       -0.31532434       6.01482808      -0.59692092
H       -0.30450950       5.67408942      -1.52775447
H        0.63416223       5.96060490      -0.21774066
O       -1.88877109       4.63305095       1.11496966
H       -1.40627221       5.20615798       0.52029509
H       -2.61583158       4.44150531       0.57486026
O        0.54227157       3.82218888       1.93049749
H        0.06903556       3.16256396       2.42276356
H       -0.05956004       4.60836833       1.92671237
O        2.11715867      -3.57504182      -4.39716899
H        2.22485227      -2.64261082      -4.18030556
H        3.01520562      -3.98113600      -4.57499693
O        2.56332457      -3.09907329      -0.71697215
H        2.65015136      -2.22476417      -1.01827805
H        1.77963717      -3.43828455      -1.23433721
O        1.24232609      -2.78991660       1.51029033
H        1.80506014      -3.03819418       0.73949652
H        1.10675009      -1.86146900       1.50821167
O        1.61547134      -3.75390538       4.02888920
H        1.57890964      -4.71016484       4.03400111
H        1.58212335      -3.44428732       3.09706624
O        2.57336485      -0.84761444      -3.86800015
H        2.72441342      -0.75143612      -2.92880133
H        1.58226096      -0.83442638      -4.10243092
O        2.45900228      -0.53189477      -0.82463906
H        2.31047966      -0.51673517       0.09353103
H        2.48201793       0.41629986      -1.10905040
O        1.23943242       0.04493070       1.41971505
H        1.30633552       0.34762563       2.34020690
H        0.52945568       0.48448318       0.92105710
O        1.13977473      -0.60236117       4.18223111
H        0.26815704      -0.97974419       4.09795304
H        1.68178592      -1.25850619       4.60427926
O       -1.43235143       1.92748051      -5.22974419
H       -0.52467076       1.73116531      -4.89064765
H       -1.37442534       1.80150198      -6.15869493
O        2.01744186       2.09619543      -1.68641699
H        2.55758014       2.72712851      -1.24715164
H        1.26801182       2.03262420      -1.02664470
O        0.08253192       1.95049219       0.06401122
H        0.10215166       2.62661697       0.78890881
H       -0.55041377       2.29253766      -0.59132367
O        0.16965670       1.75222048       5.64268297
H        0.78563426       1.18715208       5.16649257
H        0.73155617       2.17457013       6.27351800
O        1.21351386       1.76881021      -4.40603728
H        1.98661771       1.18230477      -4.45141392
H        0.98554158       1.78557697      -3.45313308
O        2.83619240       3.54331486       0.38205984
H        1.93683175       3.81531567       0.75247295
H        3.45742650       3.46806697       1.13725618
