90
Properties=species:S:1:pos:R:3 pbc="F F F"
O       -2.35196039      -2.83221601      -3.71785859
H       -2.42930633      -2.60017828      -2.76616887
H       -3.18954343      -3.18788153      -3.93963995
O       -1.78662183      -4.04851532       0.18128150
H       -1.19146557      -4.81750126      -0.02020864
H       -1.31459926      -3.23960553      -0.01153508
O       -1.07676304      -3.54920846       2.85931412
H       -1.56040285      -3.59025043       2.07250107
H       -0.25082195      -4.11470820       2.67592408
O        1.58413919      -4.18083848       2.43915961
H        1.85037649      -3.25960748       2.66173740
H        2.12265549      -4.65205754       3.08777492
O       -0.20613318      -1.31629370      -4.76573639
H       -0.70367881      -2.09902719      -4.56730943
H       -0.67958875      -0.64912631      -4.26902974
O       -0.51235573      -1.69044563      -0.38847070
H       -0.52737826      -2.05041830      -1.23403135
H       -1.22269382      -1.02055678      -0.06296960
O        0.26948514       0.02765309       1.67908567
H        0.99853428       0.63993952       1.90488984
H        0.63385785      -0.72957898       1.14181579
O       -2.31212269      -0.29901935       1.06260518
H       -1.90499214       0.46059095       1.53827904
H       -2.08694330      -1.03924667       1.58425693
O       -1.48750469       0.32050480      -3.01370288
H       -2.09603890      -0.02435817      -2.34918910
H       -1.01742895       1.06118634      -2.66285848
O       -3.14679669      -1.93860352      -1.17875668
H       -3.25400436      -1.25211245      -0.57144086
H       -2.85725075      -2.61766182      -0.59983192
O       -2.98846912       1.65638044      -0.85210072
H       -2.00778937       1.45137405      -0.71949922
H       -3.34600805       1.08692455      -0.20358789
O       -1.90803824       2.10293733       2.25302138
H       -2.32259191       2.95452900       2.37298354
H       -1.30506011       1.89503575       3.01905598
O        1.02337191       3.77679816      -2.29754915
H        0.23246914       3.48454244      -2.80147501
H        1.60621798       4.27729987      -2.92105174
O       -0.70875390       4.44004642       0.30766740
H       -1.69094401       4.41920867      -0.02298814
H       -0.10638842       4.29688515      -0.41869353
O       -3.18419088       4.26114357      -0.20811443
H       -3.98124149       4.72555130      -0.02153236
H       -3.24844540       3.39399674      -0.67159544
O        0.69711427       4.53823413       2.55072096
H       -0.12531044       4.30312184       2.02797120
H        0.83222823       5.42908744       2.35762246
O        0.22653363      -3.57129118      -2.56350085
H        0.98604625      -2.95939098      -2.72925514
H       -0.27949161      -3.53800686      -3.33872202
O        2.34790388      -3.75278441      -0.48661156
H        1.56630093      -3.90003293      -1.00259095
H        2.01021758      -4.11284930       0.39171235
O        2.28276668      -1.00945027       0.27706302
H        2.52925247      -1.78705834      -0.15414203
H        2.00571236      -0.48736873      -0.48419998
O        2.90911524      -1.63539776       2.75883185
H        2.90136621      -0.86385619       3.16777672
H        2.74992123      -1.50053792       1.80642568
O        1.87655084      -1.35353795      -2.80897961
H        1.93210072      -0.48172456      -2.48681699
H        1.45480343      -1.10218047      -3.65180432
O        1.82995551       1.10778804      -1.71785989
H        2.67740433       1.51328688      -1.48877357
H        1.22885197       1.58031534      -1.07234170
O        2.65149143       0.73313653       4.39825159
H        1.90651887       0.55834019       4.93021346
H        3.24850713       1.25196400       4.93101195
O        0.18947666      -1.86504941       4.59092355
H       -0.36393574      -2.33690455       3.96737887
H        1.01928130      -2.35375043       4.36362506
O       -1.37540883       3.03088057      -3.52330174
H       -2.19977175       2.55438956      -3.43573939
H       -0.90198906       2.56883967      -4.26681706
O        3.70095156       2.53317473      -0.52326923
H        3.33802240       2.19182679       0.25546508
H        3.36408509       3.41174716      -0.65021690
O       -0.41388476       1.50282088      -0.25940745
H       -0.63762168       2.29767697       0.21151275
H       -0.26741068       0.91897577       0.54791390
O       -0.49085503       0.96056234       4.56980676
H       -1.17728879       0.78426218       5.21678988
H       -0.24836236      -0.00195135       4.45954371
O        0.81386455       1.79918965      -4.60504499
H        0.77227869       0.82931158      -4.63835866
H        1.15559534       1.93302072      -3.70320015
O        2.03166552       2.23272575       1.97903517
H        2.34888152       1.89300560       2.81683377
H        1.80287875       3.14360887       2.03477251
