90
Properties=species:S:1:pos:R:3 pbc="F F F"
O       -1.89474614      -2.90820954      -3.78990080
H       -2.30602890      -2.67376521      -2.98713372
H       -2.57120504      -3.42003418      -4.25044773
O       -1.71451301      -3.85611530      -0.75368806
H       -1.14560816      -4.21092896      -1.41746748
H       -1.21859308      -3.02166090      -0.43687804
O       -0.72786390      -3.02589111       2.05081752
H       -1.22063639      -3.35327249       1.30584787
H        0.16198358      -3.48205738       2.14885043
O        1.77462146      -4.23696798       2.50425153
H        2.06547452      -3.33173946       2.55977961
H        1.98830662      -4.60076030       3.39269232
O       -0.29635309      -0.46623024      -4.19108895
H       -0.58262313      -0.97945760      -4.93462066
H       -0.99861383      -0.59606839      -3.48539651
O       -0.02153789      -1.69011897      -0.79136474
H        0.84732677      -1.72297224      -1.27370124
H       -0.58975706      -1.06980816      -1.14406162
O        0.09358731      -0.20344951       1.65595526
H        0.85850425       0.41923703       1.58014211
H        0.25012719      -0.81515091       0.90322850
O       -2.60590966      -0.81028148       1.12048936
H       -1.63621349      -0.84365254       1.14877174
H       -2.83100118      -0.91253555       2.02956617
O       -1.69221100       0.14958025      -1.91147474
H       -2.64710941       0.15181330      -1.86908840
H       -1.34223490       0.93493139      -1.40732614
O       -3.54263642      -2.07928390      -1.46527629
H       -4.03421862      -1.63408264      -0.71675419
H       -2.92145938      -2.71496194      -1.06523284
O       -3.81180227       1.14217411       0.08614268
H       -3.29716064       0.44352357       0.49619227
H       -4.62971854       1.12456833       0.51238610
O       -0.79636923       2.47562958       2.24234168
H       -1.45593079       1.95574415       1.77966488
H       -0.89100282       1.97570589       3.11014918
O        1.09671254       4.69650038      -2.55013987
H        1.64075995       5.25377234      -3.19258480
H        0.83255487       3.94643175      -3.10848594
O       -0.55015777       4.36858665       0.13216616
H       -1.43999092       4.40242918      -0.17605392
H       -0.06424775       4.90818054      -0.55110077
O       -2.99263020       4.49260258      -0.74884140
H       -3.30255006       3.69001427      -0.33481839
H       -2.63195404       4.24859365      -1.63840512
O        1.19865731       4.49243185       2.15863293
H        0.31349666       4.08205596       2.03032643
H        1.01327323       5.37409190       1.95563229
O        0.24961841      -4.72507806      -2.54267768
H        0.82648962      -5.26328210      -3.03914519
H        0.25252979      -3.86983252      -3.07952887
O        2.40512578      -3.64448416      -0.34851555
H        1.76880065      -4.06879401      -0.93562616
H        2.10848365      -3.92410893       0.58387006
O        3.00897167      -1.17870949       0.68308449
H        3.23240670      -2.09474967       0.36435995
H        2.83405883      -0.67884602      -0.15375050
O        2.24825554      -1.55882501       3.65306308
H        2.37295196      -0.76061890       4.02795876
H        2.45167954      -1.35852832       2.71058871
O        1.45746300      -2.31222984      -3.21350636
H        2.09530353      -1.82736858      -2.72720536
H        0.78359322      -1.73265946      -3.64166581
O        2.10810687       0.41199454      -1.56694690
H        2.73197399       1.18048315      -1.61052574
H        1.34618768       0.75292220      -1.05480065
O        2.53658423       1.20230046       4.24908623
H        1.57959184       0.90028079       4.37009785
H        2.62224760       2.13908192       4.45803956
O       -0.51894407      -1.66428540       4.12182947
H       -0.83119484      -1.66450236       3.23909642
H        0.38400191      -2.03674667       4.06903734
O       -1.45956000       3.19564538      -2.59477136
H       -0.59325870       2.84099970      -2.35482170
H       -1.71583390       2.86385096      -3.46905377
O        3.05263393       3.20239673      -1.07051386
H        2.71181334       2.96387299      -0.11744128
H        2.30759256       3.63099173      -1.52093821
O       -0.17169507       1.70533477      -0.49983124
H       -0.30211562       2.65989245      -0.20413996
H       -0.27853215       1.08455556       0.22506562
O       -0.73347139       1.03822279       4.68587319
H       -0.70820080       1.09985750       5.65691504
H       -0.61661226       0.07857266       4.46902120
O        0.73048382       2.07013987      -3.49702554
H        0.36995647       1.46352352      -4.11327585
H        1.19877683       1.51548913      -2.88874178
O        2.05645928       1.78121264       1.40780459
H        2.14934296       1.57490309       2.38037614
H        1.44494643       2.61069879       1.48931477
