90
Properties=species:S:1:pos:R:3 pbc="F F F"
O       -1.16076855      -3.20482151      -4.90966008
H       -0.64157981      -3.45770138      -4.18967703
H       -1.89771965      -3.75192704      -4.89216197
O       -0.81145135      -4.41771566      -1.46107714
H       -1.22975297      -4.45127658      -0.57436763
H       -0.62399912      -3.50910219      -1.74620609
O       -1.36165171      -4.22110378       1.12239609
H       -0.59701912      -3.64840200       1.03428314
H       -1.54800461      -4.20355118       2.03852590
O       -0.36392730      -3.70947411       3.69744001
H        0.14631971      -4.50804839       3.89493667
H        0.24775993      -2.96149441       3.61775941
O       -0.70588111      -0.46011613      -4.34808299
H       -0.93257221      -1.39276537      -4.54662981
H       -1.08095550      -0.26025053      -3.48990934
O        0.20337111      -1.87468649      -1.59134849
H        0.93647551      -1.66743125      -2.16526501
H       -0.49185958      -1.14474770      -1.55018832
O       -0.52832788      -1.55917854       1.23006520
H        0.09382681      -1.95720914       0.61824643
H       -0.25299730      -0.78297091       1.72140309
O       -1.92970379      -1.79954246       3.67067195
H       -1.58759808      -1.62489525       2.72187714
H       -1.59233024      -2.60907350       3.82455386
O       -1.57072729       0.25014837      -1.74657632
H       -2.38307187       0.06774326      -1.27797702
H       -1.05836326       0.74617763      -0.98324959
O       -3.11229979      -1.03107783       0.35519620
H       -3.78203011      -1.68231102       0.13707273
H       -2.23443158      -1.43326147       0.23340208
O       -2.62785843       0.89010090       2.13667599
H       -3.02314759       0.48022072       2.95269477
H       -2.94957272       0.29040565       1.41453018
O       -1.35194155       3.48370850       2.73858978
H       -1.77830628       2.63000477       2.49140433
H       -1.15474904       3.50427598       3.68237534
O        0.49147344       5.69020733      -3.00169349
H       -0.41129148       5.43812018      -2.88545484
H        0.84339731       5.46873041      -3.85976049
O        1.46602033       4.68145016      -0.49144856
H        0.86915064       5.15021530      -1.09486822
H        2.09515585       5.35829622      -0.37895298
O       -1.48916337       3.96515668      -0.48192188
H       -2.44185908       3.79879620      -0.54058277
H       -1.22425425       3.80711526      -1.44375811
O        1.70647283       3.16111862       1.82917640
H        0.92409616       3.48791515       2.27552407
H        1.47090512       3.36058680       0.91924058
O        3.60845611      -2.80430402      -2.72748937
H        2.93050547      -2.22283546      -2.85586891
H        4.24985696      -2.78382816      -3.42044161
O        1.71788419      -4.88658472      -0.64434848
H        2.20303271      -4.86795291      -1.48647740
H        0.74767140      -4.85766848      -1.02436604
O        2.03947064      -2.65110373       0.76916687
H        2.05279482      -3.56534250       0.38346927
H        2.22678699      -2.00694416       0.09473716
O        1.77144686      -2.25890882       3.22435857
H        1.50405656      -1.23030836       3.26238941
H        1.90508155      -2.32728062       2.26423662
O        1.94369922      -0.70025396      -3.71903307
H        2.16908359       0.14813046      -3.36787304
H        1.14147740      -0.63114754      -4.21812362
O        1.95776223       0.68678766      -1.14743312
H        2.69116256       0.95167253      -0.64569594
H        1.15759649       0.60025211      -0.55667131
O        0.36761954       0.47783118       3.00377754
H        0.08601643       0.27372295       3.93032539
H        0.24348371       1.38338919       2.90322276
O       -0.54390330      -0.38317386       5.50151078
H       -1.34404840      -0.78343751       4.99138259
H        0.01982552      -1.13791413       5.45121615
O       -1.85199716       4.03241115      -3.27882655
H       -1.61031343       3.30705888      -3.92446791
H       -2.66774770       4.50560147      -3.53317740
O        1.13909681       2.73615983      -2.69928978
H        1.41761748       1.95156303      -2.20738776
H        0.64355158       3.30899960      -2.10746596
O       -0.53446361       1.63013416       0.29299080
H       -0.92795540       1.50754947       1.16505597
H       -0.75689033       2.53480331      -0.00260517
O       -0.84796888       2.45315607       5.89539910
H       -1.08104363       2.80224900       6.73539086
H       -0.58952559       1.48654911       6.00919154
O       -0.67554640       2.38149115      -4.85356352
H       -0.79955394       1.40608547      -5.01509940
H        0.02768551       2.48983335      -4.21763696
O        3.60730074       1.44582226       0.80431218
H        4.47462123       1.80254208       1.12019120
H        2.86671776       1.99582756       1.14709791
