150
Properties=species:S:1:pos:R:3 pbc="F F F"
O       -0.02275056      -7.16393240      -0.19574807
H        0.29680020      -7.30815782       0.71471368
H       -0.92271346      -6.96479114      -0.06819058
O       -3.93961681      -4.72461291      -1.38050047
H       -3.31045178      -4.68134931      -2.14309218
H       -3.48241173      -4.78366682      -0.57580145
O       -2.41577609      -4.46810378       1.14760182
H       -2.00574032      -3.73065571       0.61640615
H       -1.65785042      -5.07529996       1.49115617
O       -0.11561812      -5.63799247       2.14778666
H        0.75624133      -5.11573131       2.31484411
H       -0.56656286      -5.63366256       2.99341641
O       -5.91494418      -2.90939261      -0.66718197
H       -6.66727459      -3.39575699      -0.99845830
H       -5.05478060      -3.45774485      -0.67582806
O       -4.30914571      -0.80755271      -2.09634523
H       -3.93095032      -1.56985883      -2.57427299
H       -5.19215646      -1.04128842      -1.79584656
O       -3.66792283      -0.67859246       1.16188138
H       -2.71223833      -0.61102756       1.08317795
H       -3.84724373      -1.49145968       0.59072222
O       -3.16806902      -2.44948348       3.18938261
H       -3.63304924      -1.72406120       2.70052706
H       -3.05055401      -3.18454027       2.47806452
O       -4.48964568       2.21622943      -3.04071871
H       -4.74322305       1.47428349      -2.45990411
H       -3.84973634       1.88221947      -3.69989032
O       -2.50437225       1.15997001      -1.32579357
H       -3.16040371       0.47441445      -1.10869722
H       -2.73429208       1.91454850      -0.74842972
O       -2.95784233       3.15255753       0.44159110
H       -3.24801882       2.57970901       1.23693469
H       -2.68690883       4.00004559       0.88655728
O       -3.76455334       1.62234211       2.86861475
H       -4.05830275       0.92436743       2.13290829
H       -3.24736743       1.05663028       3.48346166
O       -3.66414072       4.57971479      -1.97779467
H       -3.61167548       4.36013465      -1.04062576
H       -4.08406091       3.84626597      -2.41586269
O        0.58896159       6.61860288       0.49827344
H        1.11419750       6.36946850       1.36907968
H        1.21436502       6.38279501      -0.19330846
O       -1.78428546       5.49292606       0.85845100
H       -2.19785229       6.14802136       1.33694307
H       -0.92114761       6.07274378       0.67695707
O       -3.06423420       4.15895635       3.20577937
H       -3.47617858       3.27026865       2.96886144
H       -3.84117042       4.64576784       3.42991102
O        1.69720300      -3.79559292      -3.19932036
H        2.60771747      -3.95026799      -2.89827877
H        1.61471530      -2.82525638      -3.07852679
O       -1.82427206      -2.54108747      -3.01242479
H       -1.75499992      -1.58654247      -3.25192629
H       -1.31661267      -3.04946658      -3.65372797
O       -1.04450515      -2.60366858      -0.21636948
H       -0.22111483      -3.12273975      -0.25290175
H       -1.42506320      -2.53731641      -1.14540289
O        0.04881761      -4.98485938       5.33751078
H       -0.01946264      -5.55560459       6.09797398
H        0.98802558      -4.65755658       5.19208079
O       -0.86056289      -0.32378347      -4.39826274
H       -1.02785418       0.54501738      -4.01483959
H       -0.39314056      -0.23516044      -5.22721419
O        1.77586147      -0.99214163      -2.73948983
H        1.81539826      -1.41399226      -1.89072559
H        1.16036127      -0.19072214      -2.69486616
O       -0.92068530      -0.12209558       0.92313816
H       -0.89804885      -1.06683545       0.90621941
H       -0.51325170       0.24222425       0.16048846
O       -0.78603229      -2.15849186       4.16583761
H       -0.57757940      -2.92417246       4.69970421
H       -1.71591732      -2.29405336       3.87347504
O       -1.47096189       2.26742522      -3.68045409
H       -2.06181542       2.32814582      -2.93470193
H       -1.32566686       3.22558474      -3.84117309
O        0.11935587       0.79089015      -1.25118522
H       -0.71400672       0.77676270      -1.68615111
H        0.36963998       1.71314387      -1.20258402
O       -0.14323234       2.68494685       1.54177347
H       -0.43821340       2.73013214       2.43855071
H       -0.90709740       2.91543363       1.03849965
O       -1.60658866       0.53469896       3.81273330
H       -1.38782783       0.36175006       2.94348711
H       -1.20251130      -0.14492594       4.34799281
O       -1.21777318       5.04665246      -3.26435368
H       -2.19633295       5.09835160      -2.98130424
H       -0.89114447       4.63741234      -2.44697984
O        0.20431148       3.57734859      -1.23712818
H        1.16949641       3.85807665      -1.21549938
H       -0.13955323       4.03777251      -0.55055668
O        1.61544382       4.80365306       2.16103074
H        1.55532332       4.49555709       3.09118874
H        1.13372849       4.13615194       1.69936802
O       -0.38133134       3.26091058       4.44841179
H       -0.99145931       3.93357532       4.66565726
H       -0.87214797       2.41911846       4.54420311
O        3.74983762      -4.02699072      -0.95729835
H        4.35433365      -4.18444011      -0.27023866
H        2.83882527      -4.06805616      -0.60349115
O        2.99666725      -5.34004189       1.97327490
H        3.23387806      -6.14432154       1.41828622
H        3.50958589      -4.55393580       1.68163946
O        1.08021777      -4.33386506      -0.64065604
H        0.85847504      -5.25052921      -0.50902261
H        1.06520791      -4.20855950      -1.57362978
O        2.49071049      -4.18999502       4.32771844
H        2.74960272      -4.93003857       3.75991605
H        2.27899964      -3.52017798       3.67423007
O        0.77063984       1.72840634      -6.25585459
H        1.33668534       1.06439043      -6.65477738
H        1.13153170       1.88507880      -5.35252822
O        4.54131949      -1.41661565      -2.43371938
H        4.33213246      -2.24822023      -2.10752835
H        3.66214415      -0.98796589      -2.57649831
O        1.78248315      -1.66823581       0.09503688
H        1.68521007      -0.82190685       0.54095088
H        1.56740846      -2.29788417       0.83463155
O        1.12681865      -2.75807484       2.28354031
H        0.31435706      -2.39070713       2.67195755
H        1.85842625      -2.19251558       2.52911677
O        1.52230862       2.12343732      -3.70761490
H        2.06108399       1.93745533      -2.96902034
H        0.59171449       2.04710411      -3.36595469
O        3.48785328       1.74030816      -1.64522336
H        4.10332483       1.13011664      -1.98338374
H        3.01295960       1.41390343      -0.88791679
O        2.25198875       1.20987496       0.98585325
H        3.07439999       1.70779649       1.22658763
H        1.50197769       1.76129797       0.92426951
O        3.18271581      -0.71908727       2.99567295
H        3.64155301      -0.53257819       2.16014003
H        3.23828535       0.12563137       3.43986374
O        1.91989997       4.81546498      -3.90559793
H        1.61072407       3.91815484      -4.16438528
H        1.27048650       5.40528225      -4.26080495
O        2.83516344       4.40462957      -1.44298345
H        3.11210827       3.47742516      -1.41663889
H        2.60355599       4.54940145      -2.36705533
O        4.57616629       5.32456726       0.57475776
H        4.06306848       5.01600582      -0.22588454
H        3.94630035       5.85082135       1.09038069
O        4.62254559       2.34399917       1.55045338
H        4.51361626       3.29030696       1.39756468
H        5.26534856       2.00783146       0.85207507
O        5.01980935      -3.14120212       1.34927362
H        5.50677581      -2.99423070       2.12117666
H        4.89606658      -2.22584362       1.10975004
O        4.45079796      -0.86116565       0.34394587
H        3.58852327      -1.25529975       0.29083856
H        4.83164311      -0.94349130      -0.53339691
