150
Properties=species:S:1:pos:R:3 pbc="F F F"
O       -1.50493155      -3.99981321      -4.45124965
H       -1.08132110      -4.31569966      -3.66302411
H       -0.85621204      -3.66124441      -5.02689930
O       -3.69707846      -4.98103941      -1.12524202
H       -4.00933721      -5.84389177      -1.17823575
H       -3.52649834      -4.97658445      -0.13097891
O       -2.89524147      -4.79238700       1.39210006
H       -2.18463522      -4.10141931       1.64719457
H       -2.62553784      -5.59836580       1.84242592
O       -1.52365245      -5.52448018       3.61048560
H       -0.57805677      -5.78137860       3.37152095
H       -1.60029267      -4.54751271       3.54417845
O       -4.18389345      -2.88397618      -2.67357011
H       -4.34603999      -3.79350762      -2.24740225
H       -3.40041146      -3.12684126      -3.18332755
O       -2.92157023      -1.85099517      -0.41807007
H       -2.09294699      -2.34283737      -0.35508899
H       -3.43661304      -2.11732392      -1.16162999
O       -3.60809624      -0.63946340       1.91814368
H       -2.69749659      -0.30520171       1.84589132
H       -3.87102547      -0.86294767       0.98430373
O       -2.87618644      -2.67700999       3.61624180
H       -3.53649165      -2.40392064       2.87007957
H       -3.38932203      -3.12482179       4.30576906
O       -2.57495887       4.03654368      -4.07365707
H       -2.65321686       3.11131687      -4.16208301
H       -2.43694533       4.31317115      -4.98226624
O       -2.69996215       0.71017299      -0.78295130
H       -2.38296093      -0.20204922      -0.60235742
H       -3.38500290       1.02261834      -0.08033053
O       -3.76220952       2.22696306       1.28832355
H       -4.00606640       1.94026511       2.18425745
H       -3.86670521       3.17311016       1.19620340
O       -4.00709518       1.63924968       4.28159903
H       -4.41065240       1.74180475       5.13608194
H       -2.99265713       1.59723539       4.45691996
O       -2.77055417       3.72627475      -1.44611067
H       -2.85666615       2.78335318      -1.49978796
H       -2.52209953       3.95896642      -2.41378664
O       -0.49855079       4.96112784       0.03995884
H       -1.29094085       4.43159077      -0.22930658
H        0.31158028       4.52042695      -0.31669701
O       -3.03706337       4.98095871       0.97806102
H       -3.21777461       4.59470972       0.10589684
H       -2.64521765       5.81740640       0.78783548
O       -3.25861374       4.31266022       4.00612649
H       -3.64622451       3.39490650       4.03472132
H       -3.50170117       4.72269793       3.21884291
O        1.09660667      -2.63558900      -4.74347751
H        0.31690677      -2.17755632      -4.37605254
H        1.35855412      -3.38776451      -4.20838634
O       -1.22185941      -3.91649467      -1.40764249
H       -1.36563286      -3.22274440      -2.03282406
H       -1.95598824      -4.43673844      -1.25159679
O       -0.55940679      -3.29013680       2.19536245
H        0.37441754      -3.41413693       2.46907385
H       -0.69470234      -2.80313060       1.39281488
O        0.32031971      -3.48585363       5.25853292
H        0.69400190      -3.58603851       6.17861709
H        1.00374163      -3.91753925       4.73847842
O       -0.91251159      -1.80135759      -3.05700005
H       -0.14070651      -1.54701895      -2.55338383
H       -1.26275246      -1.00342367      -3.46167216
O        1.15291845      -0.35220308      -1.41517015
H        1.42045362      -0.57791254      -0.47135835
H        0.62433387       0.42172315      -1.21163442
O       -0.32791085      -0.46853210       1.07306947
H        0.19773697      -0.78394104       1.87047096
H       -0.44526888       0.48795230       1.23641679
O       -1.20154396      -1.03485919       4.56151046
H       -1.26919234      -1.77713149       5.17023572
H       -1.78000125      -1.43687192       3.92840066
O       -1.76590407       1.10573944      -3.52857649
H       -2.12413219       0.97804724      -2.65273511
H       -0.79109241       1.21962880      -3.40743274
O       -0.38365682       1.93785731      -1.04091883
H       -1.18915670       1.47446527      -0.77693875
H       -0.11349837       2.31897262      -0.15157511
O       -0.62689593       2.29257448       1.84490627
H       -0.15474528       3.12868008       2.11132770
H       -1.49153086       2.54557062       1.54263733
O       -1.41138751       1.56249467       4.49724668
H       -1.08479634       1.84804998       3.63337099
H       -1.25988634       0.57474744       4.61051434
O        0.15823418       4.05404692      -3.17458069
H        0.05652192       4.94577002      -2.89882284
H        0.01881181       3.46489773      -2.40092337
O        1.84616843       3.90336619      -0.69960408
H        2.38946646       4.37069128      -1.34401150
H        2.24952305       2.93426135      -0.77793501
O        0.55653961       4.36788684       2.32573146
H        0.22486364       4.96923813       1.57511449
H        0.22748677       4.59179483       3.21627337
O       -0.68796742       4.22621024       4.90356639
H       -1.54479754       4.47455017       4.48114263
H       -0.80289801       3.35547864       5.30990312
O        2.31928379      -4.06419256      -2.68902575
H        2.77912614      -3.27909585      -2.91128745
H        2.94557267      -4.58791088      -2.24648724
O        2.51099254      -5.72063619       0.67174038
H        2.02528265      -4.94094490       0.28432256
H        3.42316535      -5.60575610       0.44058955
O        1.31625756      -3.53142399      -0.14743833
H        0.40679104      -3.39754138      -0.49146190
H        1.74046369      -3.61421848      -0.95395478
O        1.86295851      -4.12145340       3.13676093
H        2.21351105      -4.64884479       2.41482338
H        2.58264765      -3.47946344       3.15268101
O        3.08113954      -0.60037601      -5.64160266
H        2.64120207      -1.43836148      -5.80923036
H        2.42158145       0.11371518      -5.48384322
O        3.23071147      -1.37154626      -3.01637492
H        3.15350319      -1.06688896      -3.92953861
H        2.36268263      -1.15168706      -2.64406120
O        2.65907651      -1.34951752       0.64006536
H        2.65353903      -1.04596672       1.59822337
H        2.24255335      -2.19191859       0.56352502
O        1.29675956      -1.46840461       3.10425993
H        0.58690738      -1.77317654       3.87449403
H        1.55069356      -0.54784137       3.27104693
O        1.41283257       1.35660318      -4.18013291
H        2.11235787       1.56807137      -3.48956966
H        1.47401468       2.12714288      -4.78495111
O        3.91620332       1.54290822      -2.86664483
H        4.11222341       0.58658239      -3.02880201
H        3.64093960       1.51946172      -1.89951025
O        3.32953923       1.51881730      -0.20538166
H        3.65795701       1.86224730       0.66387699
H        2.94218664       0.63043727       0.07880279
O        3.39734091       0.53976536       3.07715964
H        3.08736051       1.45251078       3.13647573
H        4.21241761       0.56994797       3.51952824
O        2.05776266       4.52521561      -5.05518945
H        1.16588222       4.45176675      -4.66060336
H        2.01915984       5.46957538      -5.30982543
O        3.32920940       4.74430252      -2.59338908
H        3.99945490       4.03351206      -2.38023340
H        3.05743088       4.61007437      -3.53382934
O        3.74402014       5.77051789       0.80816603
H        2.81469651       5.59412399       0.95864045
H        3.87916165       6.13612667      -0.07746032
O        3.01500091       3.24884736       2.34595499
H        2.17134931       3.61805303       2.17326974
H        3.65672638       3.97371330       2.10269137
O        4.79877442      -4.46217608      -0.43443953
H        5.43286779      -4.37516395       0.31529495
H        4.89882883      -3.63822819      -0.89138997
O        4.83627832      -1.68346679      -0.93731607
H        4.11218343      -1.81472989      -0.29767005
H        4.47911951      -1.27039506      -1.71996551
