150
Properties=species:S:1:pos:R:3 pbc="F F F"
O       -2.63568709      -3.92489071      -4.98884750
H       -2.76582353      -3.44117561      -5.73146592
H       -1.69688538      -4.16230936      -5.02875980
O       -3.52457203      -5.31808970      -1.49462659
H       -3.76348480      -6.19605533      -1.40727640
H       -3.25571994      -4.91698843      -0.59082370
O       -3.40525545      -4.80785709       1.42258286
H       -2.60976744      -4.30280430       1.47683457
H       -3.22259417      -5.53968930       2.03184780
O       -1.71403955      -5.36959762       3.82571046
H       -1.80860172      -4.56939316       3.36080317
H       -1.60472104      -5.01279155       4.69736236
O       -3.86541170      -2.74880182      -2.69281411
H       -4.08313797      -3.57683661      -2.17579365
H       -3.33018474      -3.13472934      -3.44933260
O       -2.45215577      -1.51658578      -0.62412201
H       -1.75460333      -2.00623932      -1.01851993
H       -3.15147842      -1.68606392      -1.28805409
O       -2.91610169      -1.07286613       2.15059773
H       -3.44195927      -0.38370768       1.69500526
H       -2.63624384      -1.51027808       1.32091517
O       -3.48262710      -3.08820853       3.99028979
H       -3.29419114      -2.61668035       3.15426918
H       -4.29300381      -2.81353155       4.36644557
O       -2.89632965       3.22432717      -4.47943418
H       -2.12149166       2.60870235      -4.30993340
H       -3.66240981       2.75818487      -4.80702197
O       -2.39568672       1.16271585      -1.13208567
H       -2.18391050       0.17126727      -1.08400611
H       -3.07396002       1.36086806      -0.40389163
O       -3.93557557       2.12810535       1.13885046
H       -3.97538983       2.00183186       2.13292242
H       -3.77963599       3.08774712       1.03859914
O       -3.96629283       1.34139154       3.83479474
H       -4.14611139       0.45793757       3.85470857
H       -3.04693964       1.59431302       4.31532124
O       -2.17822985       3.87310267      -1.84657774
H       -1.84487566       2.92007026      -1.72036671
H       -2.52863693       3.89210806      -2.67864825
O       -0.90153543       5.14572096       0.16108380
H       -1.38952670       5.01868018      -0.64606361
H       -0.24593746       4.41561895       0.23301272
O       -3.06386803       4.98800617       1.72466147
H       -3.56013142       5.49590239       1.09028686
H       -2.15577100       5.03500448       1.38994342
O       -3.47037059       4.81691530       4.46649309
H       -4.02907732       4.07803908       4.52023063
H       -3.19178347       4.92809483       3.53759961
O       -0.02248158      -3.84102822      -4.96136378
H        0.02276428      -3.07456914      -4.42687025
H        0.66003095      -4.37398459      -4.54247730
O       -0.93833479      -3.82672596      -1.60291214
H       -0.81644583      -3.28519080      -2.47026607
H       -1.52996360      -4.55337636      -1.75092676
O       -0.99788033      -3.10226715       1.59754945
H       -0.44179116      -3.61742936       1.01740259
H       -0.59756435      -2.19090305       1.48882498
O        0.23410472      -3.65983182       5.75487894
H        0.22259856      -4.65685578       5.82782412
H        0.91564392      -3.45441030       5.05890133
O       -0.84038159      -1.77292104      -3.51231873
H       -0.42901922      -1.23244213      -2.80630768
H       -1.39563362      -1.16714435      -3.94953782
O        0.69610727      -0.77406447      -1.61506782
H        0.39896640      -0.79257819      -0.64037494
H        0.82823455       0.13588933      -1.94106490
O        0.17814162      -0.70287614       0.90770113
H        0.71286576      -1.03420013       1.58987093
H       -0.14537472       0.14099318       1.15562246
O       -1.01444091      -1.36558271       4.38334450
H       -0.82455221      -2.13404119       5.01375724
H       -1.78915023      -1.68585885       3.84436344
O       -1.28802920       1.37478829      -3.69762601
H       -1.79753439       1.36696508      -2.87508254
H       -0.40171126       1.65311545      -3.61961467
O        0.20705060       2.31046416      -0.77308159
H       -0.55021762       1.92362094      -0.30934461
H        1.02415611       1.99554310      -0.31204305
O       -0.75077741       1.96430379       1.92105508
H       -0.21964760       2.73892663       2.19446152
H       -1.63218088       2.30300750       1.60285028
O       -1.26415275       1.26545209       4.68484847
H       -0.98496880       1.34977236       3.74424343
H       -0.97797678       0.37287120       4.86944568
O        0.08314544       4.07735891      -3.21141960
H       -0.72011102       4.46723583      -2.82978624
H        0.70253704       4.09885900      -2.49336619
O        2.10426427       4.70541599      -1.26748982
H        2.93214641       4.73815565      -1.79862636
H        1.95925586       3.82480387      -0.87072016
O        0.15816723       4.30298188       2.57945914
H       -0.16548543       5.15410795       2.16606037
H       -0.15435952       4.41271905       3.48844830
O       -0.58640460       4.06910107       4.89972133
H       -1.54444056       4.25999319       5.00541332
H       -0.47799720       3.20891252       5.20860413
O        2.82784717      -3.97337946      -3.10248532
H        3.01034841      -3.36185060      -3.79847120
H        3.68612465      -4.16097620      -2.79099106
O        2.64780675      -5.47223178       0.75454480
H        2.00915405      -5.78787016       0.09602372
H        3.45394998      -5.52284173       0.20632119
O        1.67120145      -3.02380968      -0.34327250
H        0.74444647      -2.92193408      -0.47985044
H        2.06437316      -3.61386211      -0.92156970
O        2.24052553      -3.46258213       3.12042316
H        2.28190015      -3.93415931       2.30761315
H        3.17633387      -3.24492965       3.29371479
O        2.06707464      -1.22774547      -4.77753165
H        1.34151634      -1.67490062      -5.17898571
H        2.03510749      -0.25892738      -4.82447416
O        3.49623402      -0.84768678      -2.37627598
H        3.43851283      -1.09289189      -3.30207411
H        2.79238438      -1.35821791      -1.95072680
O        3.08201448      -1.28427444       1.17182935
H        2.58634489      -0.84231057       1.87644253
H        2.44170683      -1.76274741       0.68448727
O        1.42645172      -0.64306014       3.26471768
H        0.76947050      -0.98809947       3.99652941
H        2.16605971      -0.23739418       3.76967036
O        1.50495802       1.63531993      -4.43240486
H        2.31912271       1.90721753      -3.82396361
H        1.65888806       2.20344294      -5.21125460
O        3.38795130       1.79620294      -2.14241379
H        3.70219678       0.81537941      -2.09355605
H        2.96129279       2.00313634      -1.25943416
O        2.50627306       1.43447418       0.43470609
H        2.96902242       1.93876327       1.09980676
H        2.79845283       0.48738839       0.53214700
O        3.80753792       0.89166022       3.64633407
H        3.44620504       1.76204304       3.45192144
H        4.60742247       0.70740102       3.23562249
O        2.09931332       4.58497866      -4.90277744
H        1.35858895       4.17484704      -4.40199921
H        1.83136641       5.53486785      -5.05626724
O        4.17072228       4.10386566      -3.20314675
H        4.23426390       3.09311323      -3.07538871
H        3.52406097       4.21525530      -3.96014982
O        3.46131270       5.84198111       0.83220813
H        2.79835991       5.64242092       0.11163733
H        4.32287296       5.70114807       0.44251228
O        2.88946188       3.60137357       2.22741303
H        1.95956111       3.66487017       2.17723472
H        3.30076233       4.50053298       1.81960878
O        4.80045888      -4.79360770      -1.21193645
H        5.64128402      -5.02339554      -0.81131278
H        4.72850553      -3.82574707      -0.99389680
O        5.01876624      -2.27081097      -0.49156999
H        4.58899988      -2.15845440       0.35512620
H        4.77729733      -1.56674866      -1.11677763
