150
Properties=species:S:1:pos:R:3 pbc="F F F"
O        0.15607438      -6.38495030       0.68797820
H       -0.55334116      -6.55632187       1.40016524
H        0.95047633      -6.43258799       1.18276559
O       -3.81592747      -6.21378482      -0.75323143
H       -3.55210637      -6.30214140      -1.69324126
H       -3.21606712      -5.65215032      -0.14849365
O       -2.53707941      -4.56570974       0.87337854
H       -2.16427845      -3.78511718       0.45262525
H       -2.12741445      -4.90380976       1.63960952
O       -1.07848108      -5.28018633       3.18859643
H       -0.21558812      -4.85546087       3.26596893
H       -1.43011786      -5.27424215       4.09618845
O       -5.35503865      -4.01820259      -1.74205106
H       -6.14395307      -4.06047229      -2.31416815
H       -5.14578963      -4.83330071      -1.33112855
O       -3.88630627      -1.54815650      -1.35430388
H       -3.22166335      -1.92325581      -1.94831645
H       -4.55225659      -2.30501688      -1.29346582
O       -3.48461762      -0.20350550       1.09478124
H       -2.55628952      -0.03628309       0.87461566
H       -3.85664977      -0.59197476       0.29160599
O       -3.24295795      -2.02467113       3.26279785
H       -3.20105724      -1.16365138       2.85767406
H       -3.33137928      -2.60477815       2.53696871
O       -5.23928150       3.35206550      -4.52410537
H       -5.71753148       3.03839896      -5.25790005
H       -4.33202363       2.88875837      -4.53294949
O       -2.82577714       1.10945401      -1.90284516
H       -3.40250057       0.32326069      -1.94808980
H       -3.10217516       1.41616555      -1.00243000
O       -2.81415857       2.88735008       0.29675074
H       -3.16836466       2.87531830       1.18489264
H       -2.56057933       3.74247407      -0.03090608
O       -3.64027384       1.92523544       2.75897552
H       -4.06956446       1.24352047       2.30333265
H       -2.91872104       1.32496935       2.99782881
O       -3.79018633       4.46234172      -2.18711103
H       -3.83587233       3.78914397      -1.48829217
H       -4.48542180       4.29302902      -2.82871930
O        0.09433891       6.28236145       1.60166169
H        0.68478708       5.86648515       2.17667805
H        0.61630405       6.21841555       0.77948296
O       -2.44706397       5.31524868       0.84703282
H       -2.89830851       6.22196726       0.82281039
H       -1.50025595       5.63911968       0.83052010
O       -2.61910301       4.26776295       3.78588097
H       -3.19555552       3.47528086       3.53287243
H       -2.33195015       4.50163183       2.81928149
O        0.88906348      -3.38779242      -3.53893445
H        1.55773913      -3.97722618      -3.89280661
H        1.34736024      -2.64200923      -3.11258697
O       -1.28602054      -2.17031988      -2.59404341
H       -0.99991979      -1.25859465      -2.82527755
H       -0.77288252      -2.81180620      -3.11467585
O       -0.96840500      -2.47262331       0.00014742
H       -0.14285008      -3.10701374       0.07099523
H       -1.21510980      -2.34070124      -0.93661791
O        0.27446253      -4.41387533       5.83331838
H        0.27706211      -5.29372729       6.21716427
H        0.87852527      -4.31768192       5.10595546
O       -0.32301982       0.30703131      -4.22637521
H       -1.01979738       0.92091655      -4.58665138
H        0.14846802       0.04816348      -5.01257446
O        1.41829398      -1.11375912      -2.00181301
H        1.60043343      -1.40868081      -1.07637526
H        0.86626060      -0.24943368      -1.89237628
O       -0.87207336       0.03374252       0.52673378
H       -0.95467067      -0.92786982       0.32649168
H       -0.55570423       0.44720887      -0.24363182
O       -0.52251927      -2.01237070       3.97480372
H       -0.54906012      -2.48513000       4.81207258
H       -1.30068000      -2.29290154       3.50964141
O       -2.87314289       2.05933129      -4.54863603
H       -2.81945071       1.65942157      -3.64807988
H       -2.16257739       2.74556852      -4.52938998
O       -0.06350386       1.66179600      -1.51237925
H       -0.91973977       1.81393521      -1.83193633
H        0.38204833       2.45121002      -1.74800846
O       -0.21275528       2.98298741       1.50159919
H       -0.40772269       3.07684074       2.45758133
H       -1.12085337       2.67916182       1.03247427
O       -1.22124201       0.46912036       3.16504645
H       -1.30024680       0.17079870       2.23373294
H       -0.85111361      -0.24740966       3.67659636
O       -1.28689759       3.98776650      -3.49663852
H       -2.08797603       4.31729867      -3.03120743
H       -0.66158752       4.34743159      -2.87926544
O        0.38464924       4.54952726      -0.78290185
H        1.30660413       4.67356036      -1.04834089
H        0.37759267       3.90158211      -0.07268827
O        1.74822005       4.19711152       3.07296495
H        1.17973918       3.75838321       3.81618299
H        1.41588625       3.87349399       2.27521365
O       -0.16405174       3.42517371       4.55487309
H       -0.86101129       4.10012668       4.66666145
H       -0.61165664       2.55707965       4.80370608
O        3.39754262      -4.01339253      -1.83836387
H        4.05062588      -4.25768754      -1.09793465
H        2.52669883      -3.93857076      -1.51422652
O        2.99469272      -5.99439149       1.15682797
H        2.49108375      -5.43150105       0.51193185
H        3.88133782      -5.73814506       0.81126357
O        0.84702081      -4.53532597      -0.80206312
H        0.23588198      -5.32149265      -0.62967368
H        0.62538528      -4.06041149      -1.66729692
O        1.67452442      -4.73816066       3.43563456
H        2.13652727      -5.13122894       2.68916638
H        1.86131896      -3.80472753       3.37242656
O        1.37053955       0.69776733      -6.42622010
H        1.75096974       1.41008988      -5.86301325
H        2.17432345       0.36451563      -6.90112269
O        4.21113844      -1.18616109      -2.35829496
H        4.29948452      -2.09877581      -2.52764674
H        3.30248651      -0.99756877      -2.27610425
O        1.86615886      -1.32592380       0.67507611
H        1.99777303      -0.40180756       0.74812906
H        1.87566802      -1.65453428       1.60925302
O        2.44792056      -1.90218136       3.36781094
H        1.76712281      -1.30298861       3.58034002
H        3.29398765      -1.38355883       3.21619811
O        1.93370931       2.07332009      -3.91683941
H        2.69312468       1.68519938      -3.43740992
H        1.13574392       1.62311998      -3.66402745
O        3.46639473       1.98326767      -1.46698854
H        4.27593924       1.43968060      -1.23955937
H        2.93880621       1.89777284      -0.64105452
O        1.95645789       1.40925929       0.72557585
H        2.53602028       1.90100001       1.30875969
H        1.02220478       1.85940054       0.88303439
O        4.41477866      -0.26165954       2.88565561
H        5.28766017      -0.37481062       3.29891784
H        4.22718059       0.70948024       2.87053204
O        1.54351252       4.71640007      -3.57264274
H        1.82318593       3.81970912      -3.80853274
H        1.05344535       5.10521560      -4.28383725
O        3.29401389       4.72530087      -1.11207506
H        3.46493094       3.78908015      -1.28300920
H        2.94047812       5.09266946      -1.93245335
O        4.95405514       4.60717714       0.83848040
H        4.45035197       4.77926994       0.00710759
H        5.03927831       5.39486312       1.39232151
O        3.89442591       2.67300221       2.20470383
H        3.26416598       3.26817065       2.69601696
H        4.52420439       3.18768394       1.65947675
O        5.02225773      -4.13980784       0.19426722
H        5.88182240      -4.32400866       0.48850753
H        4.86604276      -3.21767131       0.24621785
O        4.53049249      -1.56718285       0.14954768
H        3.62325492      -1.49976067       0.49295525
H        4.58155197      -1.29684226      -0.78186498
