150
Properties=species:S:1:pos:R:3 pbc="F F F"
O       -0.20577714      -6.31398866      -0.60949254
H       -0.18429498      -5.89737839       0.33094913
H        0.34703649      -7.06041787      -0.55801742
O       -3.79997781      -3.71766558      -1.06795444
H       -3.04398856      -3.58220296      -1.58302680
H       -3.35410243      -3.94451415      -0.21097126
O       -2.12637089      -3.99810491       0.91594567
H       -1.49288697      -3.30527489       0.79213952
H       -1.62290720      -4.59065004       1.35973629
O       -0.11273656      -5.60968136       2.11772816
H        0.15542043      -4.74743015       1.91447180
H       -0.18578882      -5.72568167       3.07864469
O       -5.35168005      -1.84043565      -0.44826254
H       -6.02412497      -2.43003926      -0.10988349
H       -4.65762151      -2.43279156      -0.82346763
O       -4.03578645      -0.11257764      -2.03827060
H       -3.61399611      -0.85527566      -2.53313364
H       -4.70771438      -0.48119846      -1.43603334
O       -3.85262306      -0.37348253       1.75879610
H       -2.91538632      -0.46404483       1.54161584
H       -4.21929021      -0.83326088       0.99282002
O       -3.75013379      -2.86210557       3.02238016
H       -4.17194983      -2.13094759       2.56754303
H       -3.21841373      -3.27843073       2.32544274
O       -3.93018367       2.24911428      -4.09982044
H       -4.21767900       1.35049626      -4.06650078
H       -2.98267615       2.08552280      -4.08629605
O       -2.03248485       0.78508794      -0.66898187
H       -2.86899090       0.38906687      -1.15247097
H       -2.35136549       1.53950701      -0.11755233
O       -2.44541734       2.82044686       1.10602898
H       -2.99406424       2.63913175       1.92679054
H       -2.40700565       3.81861590       1.16057760
O       -3.45071186       1.77046195       3.16539489
H       -3.95637143       0.94997123       2.70584855
H       -2.52512522       1.49584139       3.58143706
O       -3.54425407       4.13116477      -2.01877527
H       -3.85105514       3.60578328      -1.28127179
H       -3.75706094       3.57685349      -2.81013950
O        0.23850404       6.02730784      -0.95155895
H        1.18385318       5.83030195      -0.60475344
H        0.22684081       5.42916281      -1.71209239
O       -2.08270476       5.51456730       1.26349765
H       -1.16690829       5.63185895       1.76093045
H       -1.80677431       5.95209014       0.36358067
O       -3.16016675       4.68475206       4.57288592
H       -3.11917633       4.92073007       5.47649267
H       -3.98067371       4.08586389       4.50505678
O        2.29986018      -4.10074385      -4.09269025
H        3.23451329      -4.08467848      -3.84703229
H        2.03925378      -3.29893032      -4.57005943
O       -2.20820169      -2.42138150      -3.41297666
H       -1.83194388      -1.77899021      -3.99551881
H       -1.88472825      -3.25717045      -3.76271114
O       -0.83913995      -1.98731816      -0.86390457
H        0.07532167      -2.39310734      -0.88614467
H       -1.34265131      -2.00620294      -1.69960703
O       -0.03772595      -4.87239809       4.73581636
H       -0.06225059      -5.03894777       5.67584936
H        0.95651106      -4.76714025       4.55725346
O       -1.17227060      -0.42705127      -4.60467597
H       -1.34253184       0.36740671      -4.09680522
H       -0.66181480      -0.04498279      -5.37038041
O        2.14564066      -1.44556881      -3.03122158
H        2.10074238      -1.54746906      -2.03936907
H        1.52518923      -0.80511754      -3.28338327
O       -0.77990070      -0.29793065       1.61357115
H       -0.89729717      -0.49267085       0.64187406
H       -0.50955025       0.59761293       1.69080539
O       -1.35829847      -2.34056544       4.30185943
H       -1.18643021      -3.15756711       4.75744868
H       -2.30348358      -2.39057250       3.92214295
O       -1.33357401       1.82350067      -3.14841895
H       -1.81122158       1.58074648      -2.31777030
H       -1.19710164       2.80346782      -3.09793449
O        0.58301561       0.59407201      -1.51277833
H       -0.18745205       0.05038404      -1.36720969
H        0.35757872       1.48300802      -1.23285378
O       -0.08967469       2.22384622       2.01322186
H       -0.24132387       2.50016856       2.92392979
H       -0.98520888       2.50776562       1.63441691
O       -1.43803394       0.39099251       4.19750392
H       -1.07644355      -0.03008418       3.38690765
H       -1.38924354      -0.30190485       4.79873733
O       -0.93287324       4.44394647      -2.66320368
H       -1.59296447       4.95299867      -2.22932723
H       -0.56900921       3.91516361      -1.92037468
O        0.11623782       3.32389212      -0.61589694
H        1.06422108       3.57231327      -0.77703277
H        0.00593374       3.85626330       0.27430808
O        0.85730278       4.91364849       2.07417989
H        1.52750755       5.47927593       2.36566163
H        0.80722153       4.11353665       2.60625104
O       -0.70809467       3.08734739       4.38516701
H       -1.50587686       3.51100525       4.09443762
H       -1.02234758       2.24489392       4.75814498
O        3.77715572      -3.26718974      -0.68632081
H        3.57588899      -2.62495833       0.04320765
H        2.97681667      -3.75302330      -1.07269791
O        4.46473577      -5.24632975       2.81572950
H        4.34616504      -5.91346648       2.06000134
H        5.04724829      -4.63148347       2.45279413
O        1.19663320      -3.93858920      -1.54727156
H        0.65991891      -4.72695123      -1.66468003
H        1.57756468      -3.63588381      -2.40564917
O        2.36079917      -4.04763687       4.13887408
H        3.08056990      -4.41957653       3.70620908
H        2.72598820      -3.32021480       4.61072981
O        0.33838959       0.80971165      -6.75670337
H        0.46030534       1.53835263      -7.37592743
H        0.89183347       1.03433696      -5.95960047
O        4.83845030      -1.35226966      -2.26686126
H        4.90569107      -2.20803129      -1.95587182
H        3.98447244      -1.11881680      -2.76311390
O        1.96444605      -1.50138815       0.02617266
H        1.45794875      -0.69712593      -0.01889606
H        1.57669137      -1.85392217       0.90144223
O        0.35536470      -2.82770505       2.09824767
H       -0.22340958      -1.99482256       2.24139775
H        0.70061270      -2.99012998       3.00167586
O        1.42672420       1.71276105      -4.17532431
H        2.14860382       1.39341681      -3.62590672
H        0.60502704       1.54753235      -3.63679424
O        3.48569851       1.46721237      -1.88753682
H        4.24648894       1.09667479      -1.39301538
H        2.65573391       1.21336939      -1.38559251
O        2.17413747       1.38554150       0.70782669
H        2.99439765       1.90039575       0.80566384
H        1.40238927       1.77388214       1.04391860
O        2.61245548      -0.36783438       2.82300510
H        2.09263098       0.15362962       2.19932550
H        3.31151441       0.27286679       3.02213532
O        1.47987061       4.73273138      -3.96410665
H        1.55651578       3.88137047      -4.39362934
H        0.54635547       4.67960824      -3.65788301
O        2.50998741       3.88077009      -1.60262319
H        3.02768823       3.06910586      -1.81611644
H        2.20959514       4.31172953      -2.47214123
O        4.34333028       4.67284160       0.36763822
H        3.73079777       4.64754593      -0.39865748
H        4.03882862       4.38052509       1.22682112
O        4.64212489       1.63503199       1.90991322
H        5.36786632       2.23238096       1.58048438
H        4.63568171       0.76849647       1.41868898
O        4.28273183      -2.67466365       2.12135832
H        3.61230747      -2.09740845       2.53431899
H        4.90567942      -2.08107999       1.63848028
O        4.58848441      -0.39321233       0.17726399
H        3.71311019      -0.75740337       0.34092088
H        4.81876054      -0.80041371      -0.71909550
