150
Properties=species:S:1:pos:R:3 pbc="F F F"
O       -0.40848895      -6.19167853       0.30582690
H       -1.08166972      -5.58412775       0.40549976
H       -0.04746062      -6.26029692       1.17084248
O       -3.44905200      -6.09547192      -0.50449442
H       -4.12849897      -6.16945087       0.14956558
H       -2.87584783      -5.33451964      -0.27680413
O       -2.17283812      -4.02925260       0.79098434
H       -1.60230221      -3.31947314       0.43181207
H       -2.45706573      -4.07114920       1.69129154
O       -1.59375546      -4.31879379       3.58247548
H       -0.57567241      -4.23578196       3.27006621
H       -1.54869775      -4.87750974       4.35888113
O       -4.58603726      -4.17850081      -2.20824453
H       -3.76431124      -4.08215543      -2.73768296
H       -4.32027685      -4.93029794      -1.57120721
O       -3.90939839      -1.44813193      -1.47173084
H       -3.05218524      -1.79154319      -1.90589513
H       -4.55354559      -2.13202317      -1.54959615
O       -3.54630473      -0.10722479       1.05402879
H       -2.55196226       0.08872617       1.00656222
H       -3.87115576      -0.56629255       0.25724315
O       -2.67223033      -2.04813337       3.36469566
H       -3.00061810      -1.77303325       2.49369486
H       -2.54019818      -2.99549428       3.30356757
O       -4.67192586       3.77021836      -5.54800364
H       -5.38560355       3.19263884      -5.49537987
H       -3.81505443       3.26605395      -5.54792370
O       -3.70156240       1.41099235      -1.81982559
H       -3.87713061       0.45771363      -1.48520376
H       -3.05310590       1.84897810      -1.21875255
O       -2.61533408       2.53019056       0.82406809
H       -3.17448072       2.18037926       1.56754874
H       -2.88803406       3.39036389       0.64441676
O       -3.29462943       1.53855526       3.64231186
H       -3.93574413       0.95606378       3.15972078
H       -2.35135242       1.34660383       3.31366234
O       -4.07045600       4.57162450      -2.67728882
H       -4.42487795       3.80033873      -2.29028667
H       -4.24653281       4.48133922      -3.62320371
O       -0.13390770       6.03553540       1.34983059
H        0.36693928       5.50476659       2.06879677
H       -0.05728626       5.60661405       0.50480960
O       -2.89572070       5.39460474       1.21022774
H       -3.06090014       5.67810835       0.27604359
H       -1.95010662       5.62892487       1.51577768
O       -2.58972691       4.29658073       3.94463964
H       -3.15822629       3.51197035       4.06885935
H       -2.53989535       4.51875939       3.01512385
O        1.16206324      -3.23243230      -3.33043677
H        2.03543441      -3.52675048      -3.59309122
H        1.08697783      -2.30904586      -3.08777311
O       -1.64918255      -2.07906342      -3.13986933
H       -1.38852506      -1.38127912      -3.76364920
H       -1.19059857      -2.84055467      -3.39068651
O       -0.77764388      -2.20918055      -0.41181776
H        0.03007708      -2.90714463      -0.47508034
H       -0.99137314      -2.03199344      -1.30271400
O        0.87732788      -4.12901797       5.66047466
H        1.44489744      -3.50896135       6.14767167
H        1.15560484      -4.07790907       4.72292344
O       -0.70384020      -0.04500404      -4.73828627
H       -1.43811654       0.61151493      -4.60188647
H       -0.00963639       0.30869965      -5.27613434
O        1.40822791      -1.11891272      -1.56618761
H        1.36288450      -1.54627938      -0.61927219
H        1.28427091      -0.16605940      -1.50126544
O       -0.81903069      -0.02193661       0.73649177
H       -0.82411214      -0.99550901       0.54008519
H       -0.65002017       0.40979240      -0.12317729
O       -0.52320890      -1.76104319       4.73712936
H       -0.63792927      -2.64133834       5.18329952
H       -1.24626038      -1.82111863       4.04982059
O       -2.50016057       1.92745137      -4.30677218
H       -2.99945321       1.63713467      -3.44677477
H       -2.14479882       2.77683923      -4.16334958
O       -0.40409245       1.09195139      -1.60273721
H       -1.25634074       1.25335876      -1.93218484
H       -0.07006163       2.01391966      -1.45904267
O       -0.08072568       3.21006277       1.64568814
H       -0.06461265       2.72936372       2.43711137
H       -1.03313363       2.99274623       1.39005843
O       -0.27516241       0.79638069       3.32703558
H       -0.33646227       0.34325072       2.43543148
H       -0.62839508       0.14838801       3.96964426
O       -1.44900895       3.52221625      -2.47842183
H       -2.22908132       4.11968520      -2.36676024
H       -0.73313343       3.94855061      -1.99080138
O        0.52406170       3.53832300      -0.92086159
H        1.36436089       3.85475368      -1.06598223
H        0.34746586       3.65325144       0.02742342
O        1.64376781       5.00754677       3.22944211
H        2.21107221       5.74949083       3.55963837
H        1.18031271       4.67150760       3.99169726
O       -0.02692557       3.85448650       5.17207676
H       -0.92806090       4.13821046       4.84797168
H       -0.16251930       2.90640402       5.45155401
O        3.85351911      -4.11637851      -2.88935164
H        4.68371776      -4.08848872      -2.38064574
H        3.23796071      -4.50446552      -2.18423969
O        3.19576774      -5.52268416       0.91838330
H        3.17016727      -6.27878642       0.34538053
H        3.90925892      -4.97335222       0.56744144
O        1.04807022      -4.05142371      -0.85050613
H        0.37241966      -4.73849504      -0.61420262
H        0.97353535      -3.80909836      -1.84813784
O        0.86594862      -4.33560803       2.57353509
H        1.36855708      -4.75676631       1.85358642
H        1.42825204      -3.55845796       2.77772744
O        2.30505204      -0.14789070      -6.41000139
H        1.92127372       0.08476861      -7.26637417
H        2.85024480       0.55460651      -6.14059457
O        4.01507476      -0.61092867      -2.71870364
H        4.10609730      -0.54952320      -3.66873345
H        3.13625552      -0.96102332      -2.58472312
O        2.08704595      -1.64605714       0.84842477
H        1.97764811      -0.70756746       1.07950403
H        2.10020337      -2.07978612       1.74860486
O        1.75808317      -1.95002358       3.49259921
H        0.89165233      -1.74570266       4.00521158
H        2.32483615      -1.23588111       3.61450168
O        1.33780469       1.72645666      -3.81027126
H        1.75656148       1.48107702      -2.97981936
H        0.48126645       1.27705590      -3.76022989
O        2.79749476       1.50910334      -1.63151070
H        3.49995267       0.86742951      -1.83946427
H        2.52862119       1.33371470      -0.72927931
O        2.00480252       1.16022356       0.87815321
H        2.45476393       1.61156388       1.59650480
H        1.12683154       1.51978659       0.81511696
O        3.76749883      -0.05514632       3.58242228
H        4.37558726      -0.30694505       4.30926000
H        3.49857935       0.89032250       3.64593204
O        1.65958385       4.50250241      -3.53325576
H        1.33022704       3.55145497      -3.75845489
H        1.69037336       4.86403303      -4.41574077
O        3.14944989       4.17580092      -1.18325297
H        3.30727282       3.24274207      -1.37899770
H        2.75639911       4.57291843      -1.97373832
O        5.01164845       3.90082473       0.89992087
H        4.27513924       4.48551407       0.63522706
H        5.01441450       3.20401633       0.21405498
O        3.17649060       2.78478669       2.67548033
H        2.61719666       3.67516756       2.69441486
H        3.96626075       3.06122440       2.11246847
O        5.39462949      -4.27351605      -0.47077957
H        6.26630617      -4.62070715      -0.50046407
H        5.26841966      -3.32149193      -0.31897480
O        4.76251677      -1.84885589      -0.24349941
H        3.76910231      -1.81443518       0.12113739
H        4.80317805      -1.18145875      -0.92734691
