150
Properties=species:S:1:pos:R:3 pbc="F F F"
O       -0.80538002      -5.41670135      -1.97154569
H       -1.60472560      -5.40723240      -1.51490645
H       -0.89265558      -6.13829932      -2.61422375
O       -3.39943875      -5.25694793      -0.42864894
H       -3.55760694      -6.09663256      -0.14561970
H       -3.48238840      -4.52667524       0.33257952
O       -3.14092138      -3.47199517       1.44538840
H       -2.31618146      -3.02632537       1.17413782
H       -2.97607945      -4.00293856       2.24135111
O       -1.41152833      -4.39921729       3.63256729
H       -0.80511404      -4.15368345       2.93348593
H       -1.00454382      -4.12527609       4.49279127
O       -4.27280351      -3.70536390      -2.56843120
H       -3.81474070      -4.28943019      -1.88641066
H       -3.70228949      -3.81169459      -3.34716442
O       -3.56487596      -1.34814820      -1.14889744
H       -2.88162926      -1.69400807      -1.81025995
H       -4.36457398      -1.87279802      -1.28271320
O       -3.16789045      -0.64906280       1.53508651
H       -2.19841032      -0.62705985       1.41109482
H       -3.45135164      -1.07850720       0.67221334
O       -3.00704526      -1.84872402       3.87837364
H       -3.15655193      -1.44545766       2.93905346
H       -3.26885093      -2.77680424       3.78334539
O       -3.44582411       3.82021340      -4.94207413
H       -3.13015524       2.95899360      -4.90848658
H       -2.84724198       4.44061685      -5.34173192
O       -3.14900388       1.32042968      -1.43216240
H       -3.56791483       0.43643998      -1.46971608
H       -3.32610954       1.60496627      -0.49555591
O       -2.94691859       2.11792490       1.29740925
H       -3.36700599       1.52689599       1.93151218
H       -3.33174086       2.98903907       1.35123571
O       -3.28101577       1.30690632       3.93621142
H       -3.38476934       0.42792983       4.26585256
H       -2.26061853       1.45448459       3.98879482
O       -3.76342251       4.36072227      -2.20709030
H       -3.81418752       3.37013884      -2.39958048
H       -3.83740497       4.81043867      -3.04839439
O       -0.61859195       5.70734306      -0.04475604
H       -0.32005183       6.18031876       0.67765047
H        0.06095893       4.96578616      -0.21648496
O       -2.86883908       4.80568528       1.16534970
H       -3.56803336       5.03778437       0.58248093
H       -1.98767577       5.25408093       0.89684460
O       -2.95967102       3.97168806       4.12620985
H       -3.37250920       3.05081003       4.05762610
H       -2.99241200       4.32119568       3.18004315
O        0.54760976      -4.08009390      -4.17520387
H        0.79565946      -4.31618311      -5.06147334
H        1.29872289      -3.88907403      -3.65920691
O       -1.26135382      -2.75991961      -2.16112599
H       -0.97226353      -2.09340248      -2.76269665
H       -1.05328661      -3.61489002      -2.53388823
O       -0.60855630      -3.08824813       0.41028909
H       -0.05117147      -3.86770710       0.45514264
H       -0.66237330      -2.89606628      -0.49037208
O        0.82341242      -3.92634510       5.35000368
H        1.04714885      -3.70513598       4.42433362
H        1.02297191      -4.84750970       5.44991711
O       -0.71965345      -0.73810167      -3.88663064
H       -0.15629721       0.06274350      -4.01959946
H       -1.17254895      -0.79132118      -4.71431160
O        1.33049486      -1.22546856      -2.11604535
H        0.92206827      -1.89654489      -1.51456785
H        0.71238124      -0.50125021      -2.08985955
O       -0.30415753      -0.41336138       1.10904972
H       -0.34952749      -1.41890537       1.23554620
H        0.05132290      -0.29486557       0.20411986
O       -0.45337950      -1.38711874       4.72698269
H       -0.09886204      -1.96830170       5.44795666
H       -1.47050237      -1.61280851       4.73310889
O       -1.96185830       1.66539559      -4.40391779
H       -2.26554979       1.39846014      -3.46862200
H       -1.47551169       2.45783816      -4.17532783
O       -0.50319956       1.46826985      -1.29024225
H       -1.46845007       1.44850373      -1.23737065
H       -0.35668695       2.39599892      -0.93158758
O       -0.31014519       2.61143986       1.45964363
H       -0.27257787       3.54903969       1.78276242
H       -1.23158227       2.19076432       1.37746977
O       -0.56700157       1.32824259       3.96928172
H       -0.31201758       1.25868308       3.02114902
H       -0.32886031       0.51067570       4.39010075
O       -0.97919080       4.20279737      -2.70038293
H       -1.92311003       4.45879084      -2.76982219
H       -0.64568630       4.68783329      -1.94088854
O        1.08401010       3.74790524      -0.69950740
H        2.01890474       3.90657257      -0.89330563
H        1.13561315       3.06787926      -0.02705527
O        1.14453314       5.01944712       2.63632910
H        1.86966287       5.57332745       3.02055945
H        0.71901498       4.74104173       3.47390057
O       -0.11556933       3.91595134       4.52082400
H       -1.12370726       4.00013703       4.52965197
H       -0.05426810       2.95647578       4.67927357
O        3.30288629      -3.84406134      -3.22372133
H        3.59112496      -2.91660873      -3.36525957
H        3.89970147      -4.25406258      -2.62134055
O        3.20189646      -4.88189252       0.94360049
H        2.43282049      -4.80129102       0.30314824
H        4.03608340      -4.76796935       0.45964619
O        1.42882529      -3.96695108      -1.11926912
H        0.94598121      -4.39145916      -1.77576669
H        2.23973559      -3.61583455      -1.62104542
O        1.22558800      -4.22928427       2.56514218
H        1.97725684      -4.73405196       2.23077622
H        1.46261851      -3.33098493       2.38777006
O        2.33747512       0.12373051      -4.89063447
H        1.83879739      -0.47846409      -4.32050192
H        1.87203693       0.99730836      -4.82930423
O        3.98042099      -0.97790412      -2.88327930
H        3.85946422      -0.47216465      -3.67753454
H        3.10989499      -1.11951076      -2.51778769
O        2.52066689      -1.42421182       0.48301299
H        2.01936730      -0.87060763       1.12912437
H        2.05520085      -2.20836153       0.43948155
O        1.54356807      -1.71049486       3.06943104
H        0.82912781      -1.55560659       3.68659521
H        2.31967022      -1.25361121       3.43003388
O        1.01770641       2.15465933      -3.59414420
H        1.77698938       2.13192047      -2.91030959
H        0.30455386       2.43944098      -3.02763143
O        3.07870082       1.36391978      -1.73123601
H        3.83606841       0.75920531      -1.88747875
H        2.73163404       1.13496009      -0.86224979
O        1.90679896       1.37182054       0.71792395
H        2.40589877       1.76067678       1.46443630
H        1.02827552       1.29398089       1.03527377
O        2.58767154       0.16947654       4.56259886
H        2.58548930       1.02668928       4.08496912
H        3.45351562      -0.14327896       4.61855410
O        1.50948683       4.65355806      -4.32340545
H        0.79184857       5.02066748      -3.87492926
H        1.34013796       3.69890495      -4.15208323
O        3.40036522       4.11888082      -2.04092122
H        3.49302462       3.13290856      -2.27121774
H        2.95645377       4.49717230      -2.72525079
O        4.41511547       3.60722177       0.58039092
H        4.45913661       4.44489231       0.08359726
H        3.77672558       3.10010582       0.04607875
O        3.03097345       2.65103208       2.77353247
H        2.16461622       3.14556101       2.71016075
H        3.69001794       3.12899513       2.34787422
O        5.30809700      -4.30725261      -1.26834558
H        6.23227085      -4.31051329      -1.61506294
H        5.16758790      -3.46967945      -0.76803926
O        5.16058276      -1.73089542       0.35295363
H        4.17590505      -1.55716213       0.39576862
H        5.54819785      -1.08120629      -0.21560401
