150
Properties=species:S:1:pos:R:3 pbc="F F F"
O       -1.53831048      -4.99632528      -1.84920102
H       -1.70313747      -5.90026750      -1.56896413
H       -1.82841859      -4.49997929      -1.05761577
O       -4.08168875      -2.37058276      -1.52800633
H       -4.17079600      -2.81793236      -2.39726439
H       -3.52245986      -2.91675902      -0.96790577
O       -2.19995021      -3.52405859       0.37668194
H       -1.91657563      -2.56492377       0.58304825
H       -1.42416756      -4.02910031       0.69175092
O        0.02530893      -4.83252979       1.24720829
H        0.48100562      -4.08604142       0.70482174
H        0.38948026      -4.69454360       2.14505956
O       -5.65054736      -0.61093791      -0.57053298
H       -6.54991746      -0.65512466      -0.85850342
H       -5.21611691      -1.34204758      -0.98186827
O       -4.24534032       1.35893422      -1.91281541
H       -4.05821509       0.93795232      -2.73733096
H       -5.00084530       0.91267869      -1.48627627
O       -3.72495837      -0.10317925       1.49777314
H       -2.94062427      -0.20244526       0.94629626
H       -4.57262260      -0.16245622       1.04630121
O       -3.48954053      -2.67263261       2.67259623
H       -3.56042841      -1.78913791       2.27633468
H       -3.16250368      -3.26468440       1.96337584
O       -3.39436248       0.29432633      -4.19810765
H       -2.57880259       0.91911368      -4.35020039
H       -3.87809905       0.12789888      -4.99603922
O       -1.88888579       1.20807468      -0.62684227
H       -2.77848617       1.23900634      -0.96994981
H       -1.94168436       1.91046892       0.12007632
O       -2.36695933       3.32788657       1.34680617
H       -2.69525066       3.78143717       2.10555685
H       -1.64204583       3.97024079       1.12400299
O       -3.30648674       0.43851073       4.05936124
H       -3.52135217       0.32711263       3.14662734
H       -3.45618806      -0.45980463       4.45024995
O       -4.13814923       3.95270318      -0.91636188
H       -3.72954247       3.78465838      -0.03352059
H       -4.39445741       3.07313951      -1.27389616
O       -1.19500401       6.59016881      -2.16450678
H       -0.31200702       6.58075369      -2.57480978
H       -1.43858923       5.65526604      -2.17109256
O       -0.44776455       5.53572741       0.71738439
H       -0.07979780       5.63151807       1.55151674
H       -0.72921925       6.34555926       0.30769319
O       -2.64001196       3.14661079       4.49907763
H       -3.07508063       3.78936245       5.09741152
H       -3.01157809       2.26819711       4.54258086
O        2.77859760      -3.49300860      -3.50742526
H        3.64375076      -3.90304839      -3.50686554
H        2.90392459      -2.53781296      -3.61815130
O       -3.44034745      -3.80718209      -3.52026547
H       -2.98500197      -3.05953697      -3.94600438
H       -2.72321901      -4.38128814      -3.24461706
O       -0.06473932      -1.24734605      -1.51764072
H        0.59921982      -1.85002199      -1.15284861
H       -0.67125384      -1.75370142      -2.13699173
O        0.51224042      -3.97071170       3.82918941
H        0.04198632      -4.72824888       4.20248687
H        1.21063359      -3.84382915       4.53226430
O       -1.68254018      -1.88957266      -3.85248626
H       -2.08427196      -1.01949691      -3.64224090
H       -0.92245820      -1.72012331      -4.38893822
O        3.33543684      -0.96775110      -3.07230251
H        4.14191634      -1.17582737      -2.50652476
H        2.63997003      -0.78420476      -2.40787978
O       -1.07286721      -1.01068255       0.75070068
H       -0.61568209      -0.39363875       0.08235286
H       -1.11538195      -0.59149120       1.58666766
O       -1.01494025      -1.67209267       3.23225437
H       -0.44772588      -2.49386426       3.16269361
H       -1.81013401      -1.98294088       3.55787334
O       -1.48453709       2.12102334      -4.39369258
H       -0.95140553       1.81118214      -3.65330064
H       -1.87278544       2.83518267      -3.92456865
O        0.55505401       1.33933629      -2.42967709
H        0.26513674       0.57286045      -1.98590031
H        0.34754429       2.06830942      -1.84214020
O       -0.96839805       1.08709346       2.86259898
H       -1.34966301       0.93901292       3.72878166
H       -1.58035450       1.79474013       2.45032473
O       -0.07425259      -0.13058810       5.62951509
H        0.36060252      -0.51361376       4.79198250
H       -0.83456554      -0.72083998       5.91100694
O       -1.89241566       3.74028055      -2.35697241
H       -2.69174161       3.90264497      -1.81866535
H       -1.16769151       3.39069359      -1.83042986
O        0.61278008       3.27884313      -0.53721894
H        1.47144401       3.48215444      -1.05503278
H        0.36713534       4.10496908      -0.10511590
O        0.10140569       3.92779843       2.90571123
H        0.40199213       4.17252398       3.84357514
H        0.24612385       2.98756979       2.81972193
O        0.32545691       2.54431024       5.17322011
H       -0.58485457       2.82973749       4.94549096
H        0.20594512       1.64707079       5.47092339
O        3.21402516      -3.59194138      -0.34327196
H        3.17249082      -3.00285362       0.40728795
H        2.34002914      -3.78440365      -0.75633767
O        3.80341722      -4.02188110       3.43068302
H        4.30604271      -3.20049144       3.07770387
H        4.12962384      -4.73423522       2.79356991
O        0.86588288      -3.86452100      -1.64724489
H        0.12227763      -4.50061651      -1.84100884
H        1.45663839      -4.00881307      -2.37262154
O        2.33143878      -3.37772661       5.62422618
H        3.09221881      -3.70172533       5.19288259
H        2.24619113      -2.39876746       5.56142450
O        0.57720133      -0.77043883      -5.03839633
H        1.24766676      -1.23334820      -4.52810415
H        1.05373864       0.05570907      -5.34653516
O        5.29626482      -2.49534029      -1.59735750
H        4.61267343      -2.98725367      -1.03057543
H        5.65105324      -3.16311070      -2.11004958
O        2.23740175      -0.56990911      -0.45690131
H        1.94919845       0.12249614       0.12351043
H        2.11005719      -1.37516210       0.02415247
O        1.31022351      -2.15944487       1.41812077
H        0.44922789      -1.60107351       1.42502812
H        1.60997312      -2.43942793       2.31045649
O        1.44782868       1.83914417      -5.16989264
H        1.25004298       1.61541506      -4.24377761
H        0.55780222       2.04767482      -5.54861716
O        3.82790911       2.07734432      -2.31288803
H        4.46554554       1.54332271      -1.74267406
H        3.11800004       1.54934908      -2.61516399
O        1.11399312       1.24588135       1.15356650
H        0.26793866       1.06223263       1.60084865
H        1.07419318       1.89186754       0.42807796
O        1.65294775      -0.87876413       3.78572553
H        0.89804058      -0.96257479       3.23898722
H        2.32131085      -0.16515346       3.50414047
O        1.44763545       4.20939682      -4.03164712
H        1.14292637       4.71984288      -4.77726799
H        1.88636664       3.38670723      -4.28346735
O        2.66362800       4.36059155      -1.67192796
H        3.34230913       3.73828002      -2.03187762
H        2.07884529       4.64728899      -2.47460127
O        4.07569578       3.05166991       0.88866190
H        4.63936258       3.12078170       0.15507627
H        3.23437646       3.41789839       0.72549676
O        4.28079666       0.72708301       2.40472542
H        4.69557416       1.35644068       2.93657833
H        3.94259902       1.11046539       1.58254038
O        5.21026334      -1.96685770       2.18185740
H        4.87353565      -1.07633379       2.24299780
H        6.09585829      -1.94001187       1.98100361
O        4.75789280       0.35086545      -0.62035853
H        3.86122239      -0.13127060      -0.59415504
H        5.38650660      -0.21578997      -1.09542858
