150
Properties=species:S:1:pos:R:3 pbc="F F F"
O       -1.10486946      -5.11523972      -3.03049946
H       -0.71226271      -5.96620725      -2.59976716
H       -0.67328718      -5.06764435      -3.86655716
O       -3.50827099      -5.48973899      -1.07159544
H       -3.92772264      -6.27424002      -0.87602791
H       -3.39140344      -5.14352856      -0.22634889
O       -3.04767500      -4.27331766       1.23661537
H       -2.32677455      -3.64601084       1.13985573
H       -2.74648420      -4.85082071       1.93200770
O       -1.41331504      -5.04104183       3.28314937
H       -0.54839582      -4.71699493       3.14713611
H       -1.82582052      -4.64683801       4.06987017
O       -3.78334778      -3.56212784      -2.93409327
H       -3.54947824      -4.33276198      -2.37738942
H       -3.19356848      -3.43440696      -3.64663775
O       -3.66332449      -1.70801203      -0.64538202
H       -2.79333416      -2.04576247      -0.35253789
H       -4.12542099      -2.35142904      -1.24011216
O       -3.31114961      -0.54391570       2.12728104
H       -2.43925085      -0.29442486       1.86513506
H       -3.72277773      -0.76756842       1.24161541
O       -3.62591985      -2.10968985       4.59608901
H       -3.50782370      -1.64910863       3.73355846
H       -4.48668832      -1.74124809       4.86816430
O       -3.48387466       4.31443720      -4.08429638
H       -3.22948756       3.90817333      -4.85783807
H       -3.44015433       5.24627732      -4.27319059
O       -3.12130375       0.97990647      -1.00224863
H       -3.36606715       0.04206249      -0.73051505
H       -3.42207051       1.56422871      -0.29356010
O       -3.48154142       2.65980031       0.98774958
H       -3.69490713       2.14121437       1.74484759
H       -3.87528095       3.52015277       1.07292181
O       -3.66767152       2.04622203       3.75009105
H       -4.38154837       1.66702733       4.26452260
H       -2.67595176       1.50171264       3.98635846
O       -2.90911353       3.95048713      -1.44554979
H       -2.84498338       3.06211208      -1.37907759
H       -2.62499492       4.14118200      -2.34074441
O       -0.99783476       5.21002583       0.20560045
H       -1.55015252       4.57891390      -0.36823483
H       -0.04999362       5.03194309       0.01918693
O       -4.17068651       5.34623127       0.82283418
H       -4.43910934       5.22195246      -0.11331285
H       -3.27214923       5.75305261       0.92883388
O       -3.23172985       4.79533681       3.75867224
H       -3.39628017       3.89412379       3.90741911
H       -3.74478876       5.15492126       3.01690849
O        0.47442796      -3.45209571      -4.51557996
H        0.22924299      -2.73871353      -3.91414149
H        1.25635432      -3.89374629      -4.21161149
O       -1.29677740      -2.95073281      -1.38463742
H       -1.17843193      -2.24326703      -2.04632450
H       -1.54102988      -3.70793048      -1.99345314
O       -0.53290974      -2.92670103       1.23462237
H        0.11488322      -3.57399710       1.59911831
H       -0.72348705      -3.06890682       0.30229406
O        0.59137649      -3.72762195       5.70858258
H        0.44212250      -4.66177093       5.44103592
H        1.39159185      -3.58641470       5.21092585
O       -0.46044772      -1.21260315      -3.34206163
H        0.32817062      -1.00449368      -2.82083418
H       -0.94586050      -0.35664434      -3.49172954
O        1.49874097      -0.55393282      -1.70070077
H        1.29526575      -1.11492585      -0.91309319
H        1.10669833       0.31831981      -1.65777519
O       -0.21977001      -0.35143271       1.65134922
H       -0.38372914      -1.22628777       1.48614849
H        0.69660414      -0.22006863       1.90173729
O       -0.66532688      -1.61052239       4.18193142
H       -0.26963456      -2.25381490       4.90117694
H       -1.45645010      -2.15162838       3.94946633
O       -1.93215466       1.30861040      -3.56858374
H       -2.78352977       1.23033980      -3.21404550
H       -1.28601851       1.34968512      -2.83922226
O       -0.34389118       1.61066547      -1.23143430
H       -1.29392909       1.39086931      -1.20502799
H       -0.07424118       1.98723514      -0.34869149
O       -0.55940564       2.37107107       1.40171032
H        0.30029085       2.94239653       1.44449797
H       -1.32129582       2.91318259       1.36126547
O       -1.11985766       0.96686364       3.79049114
H       -0.89067231       1.17339035       2.85425983
H       -0.96429310      -0.00405616       3.92752836
O       -0.54648408       4.07810351      -2.81117853
H       -0.40884276       4.92392175      -2.35308809
H       -0.09798594       3.42659810      -2.21091623
O        1.79499221       3.61995142      -0.87934301
H        2.26571623       3.92544000      -1.63577585
H        2.18482401       2.79313374      -0.63398453
O        0.90115952       4.59668807       2.34895931
H        0.34775190       5.17402314       1.90348880
H        0.52382051       4.52472440       3.22215621
O       -0.57658071       3.73166462       4.26441226
H       -1.27844418       4.25452550       3.95482287
H       -0.79697461       2.81034961       4.27469657
O        3.21210972      -3.56446899      -3.43655777
H        3.36087405      -2.59621139      -3.63466106
H        3.78217954      -3.86092298      -2.78625415
O        2.86492512      -5.05786549       0.50216350
H        2.13847554      -4.75596159      -0.13155871
H        3.67717255      -5.05073630       0.01780852
O        1.35422549      -3.90234040      -1.34911010
H        0.40798622      -3.52831248      -1.42007378
H        1.74703029      -3.59403213      -2.15769442
O        1.31032352      -4.01623363       2.88818953
H        1.95200755      -4.44855935       2.33751736
H        1.62178052      -3.08589207       3.05991339
O        1.90809526      -0.95385176      -5.27053240
H        1.09526327      -1.45834839      -5.38594968
H        1.67093310      -0.01912542      -5.20247295
O        3.85447882      -0.94917944      -3.03111884
H        3.60010725      -0.74173489      -3.96055481
H        3.06745472      -0.80408823      -2.42661988
O        2.16506705      -2.03200671       0.56994217
H        1.58645421      -2.31021750       1.33984168
H        2.09065575      -2.82404228      -0.07363096
O        1.91613098      -1.51769917       3.23666407
H        1.13926814      -1.17446817       3.68097621
H        2.68486681      -1.22937221       3.76190404
O        1.92155820       1.58233639      -3.65374950
H        2.66463942       1.70928535      -3.08719303
H        1.33898062       2.32691737      -3.59489361
O        4.33998306       1.59195421      -2.07686582
H        4.56419380       0.79803945      -2.55697306
H        3.91676449       1.29344229      -1.22905528
O        2.79969797       1.25385465       0.29974683
H        3.13017541       1.67913248       1.13129768
H        2.71239342       0.29855835       0.50200775
O        3.47353237       0.47336016       4.61810230
H        3.66117216       1.24053708       4.02835662
H        3.54123969       0.84176538       5.46039248
O        1.36526257       4.95150467      -4.67615727
H        0.52891431       4.59941787      -4.22903360
H        0.98088581       5.62370724      -5.23097873
O        3.53675333       4.50011258      -2.61325087
H        4.08162176       3.64601794      -2.69145727
H        3.05205567       4.62546067      -3.34475963
O        4.18136496       4.63888788       0.37322908
H        3.21855559       4.48842394       0.47415695
H        4.32072638       4.98506606      -0.50606646
O        3.49049225       2.65222158       2.62314228
H        2.75542388       3.15446114       2.93299776
H        3.98441169       3.30971205       2.24682128
O        4.95685947      -4.09767140      -1.04832258
H        5.81339868      -4.56929531      -1.22263678
H        5.13024826      -3.33912476      -0.49994104
O        5.19443639      -1.82919719       0.27119142
H        4.27322705      -1.80225272       0.46517575
H        5.43194417      -1.31656547      -0.46649572
