150
Properties=species:S:1:pos:R:3 pbc="F F F"
O       -0.75350492      -5.23778527      -1.00968846
H       -0.67421181      -5.35892261      -0.02969401
H       -1.51617584      -4.70584372      -1.12076627
O       -4.45068990      -2.62661559      -1.60216824
H       -4.44486412      -3.08667658      -2.49389101
H       -4.08339694      -3.32232364      -1.01183989
O       -2.53444796      -3.36466727       0.58034642
H       -2.52577417      -2.40698119       0.59041545
H       -1.71159345      -3.64689427       1.03264841
O       -0.18502407      -4.34304486       1.50745251
H        0.53109004      -3.64020626       1.25428186
H       -0.01160349      -4.59938388       2.44370162
O       -5.50092802      -0.68166408      -0.07526643
H       -6.19475074      -1.13337440       0.37838650
H       -5.19672159      -1.31497161      -0.73423672
O       -4.08986354       0.92827337      -2.11624119
H       -3.98489325       0.45989861      -3.01471015
H       -4.63932425       0.31866307      -1.60336683
O       -3.58197458      -0.11986959       1.93258193
H       -2.77974374      -0.44052044       1.49640929
H       -4.38984638      -0.18207117       1.34487383
O       -4.05095007      -3.00882580       2.85448525
H       -4.52999585      -2.19465145       2.77032132
H       -3.66673798      -3.20940123       1.92041751
O       -3.92663719       1.50105344      -4.76344516
H       -2.94152864       1.74301107      -4.44326100
H       -4.43007230       2.20630669      -4.36677994
O       -1.73816596       0.96731398      -0.77190883
H       -2.63959504       0.87793038      -1.23978426
H       -1.85961641       1.70283525      -0.14755529
O       -2.93487766       3.18173285       1.53828045
H       -3.66126849       3.38153911       2.19065901
H       -2.42357002       4.02479612       1.53666076
O       -3.43549297       1.18211239       4.48865342
H       -3.57943064       0.63531033       3.62834091
H       -2.70296165       0.78573038       5.01136225
O       -3.88039002       3.67493616      -1.20174361
H       -3.76585123       3.63900177      -0.23948772
H       -4.00983071       2.75179739      -1.43992193
O       -0.31852728       6.81719052      -2.28205014
H        0.55651873       6.59521424      -2.45030695
H       -0.70769468       6.46675813      -3.11763340
O       -1.38507324       5.32269902       0.71871688
H       -0.53997565       5.07014888       0.90988731
H       -1.28915917       6.06242634       0.04399642
O       -2.69099697       3.82838277       4.68184848
H       -3.36651369       4.11451894       5.31302093
H       -3.06928261       2.98769413       4.39840634
O        2.42688283      -3.80694838      -4.09668350
H        3.16659131      -4.43130389      -4.14299291
H        2.69684265      -2.91809940      -3.96674702
O       -2.74635476      -3.58165466      -3.89997774
H       -2.43966168      -2.71174253      -4.10925030
H       -2.20374085      -4.17338333      -4.43299348
O       -0.46149734      -1.44601529      -1.74732101
H        0.06309060      -2.27342728      -1.69596714
H       -1.02643394      -1.58625571      -2.53946137
O        0.25163044      -4.57986646       4.32772098
H        0.08754111      -5.09142874       5.11991653
H        1.00241528      -4.02817825       4.62585447
O       -1.34600411      -1.08202459      -4.24040880
H       -1.65321000      -0.19137807      -4.45595811
H       -0.57504753      -1.19500369      -4.76546950
O        2.85692411      -1.07405213      -3.66711065
H        3.08648654      -0.74611604      -2.81030630
H        1.91968296      -0.75713980      -3.79205511
O       -1.02847519      -0.87682163       1.07354706
H       -0.98420951      -0.26285849       0.37286725
H       -0.67462437      -0.43089513       1.86642779
O       -1.61008572      -2.57980817       4.15345123
H       -1.15659331      -3.41109723       4.22996061
H       -2.50822971      -2.81355787       3.66581666
O       -1.24546969       1.62797097      -3.69947363
H       -0.86170848       1.04632466      -3.03785098
H       -1.42484746       2.53137926      -3.28102581
O        0.94824765       0.68392811      -2.11031582
H        0.44681256      -0.16201697      -1.95813459
H        0.68255163       1.31422588      -1.47609157
O       -0.85408821       1.58254658       2.70281423
H       -0.75493003       1.95704089       3.57070509
H       -1.72390363       1.83203803       2.37802464
O       -1.27323966      -0.32039509       5.72208685
H       -0.41525693      -0.20162526       5.34166678
H       -1.38529831      -1.26786557       5.58408016
O       -1.41137146       3.91718230      -2.23540603
H       -2.30677273       4.03239454      -1.87014263
H       -0.86342764       3.48660133      -1.58753252
O        0.47437914       2.99201768      -0.45399726
H        1.22493510       3.53097000      -0.88186789
H        0.53286322       3.14124376       0.48310610
O        1.07941131       3.77708745       2.10855422
H        1.71879017       3.27422661       2.57735051
H        0.24361034       3.79441681       2.55791750
O       -0.09056751       2.90944182       5.01908440
H       -1.06300335       3.23413768       5.07908332
H        0.14310575       2.29760029       5.72920930
O        3.54381419      -3.72428422      -0.24766623
H        3.13543608      -3.19302833       0.50140523
H        2.94206758      -3.89817526      -0.95457853
O        4.47328329      -3.90517491       3.31912241
H        4.46470293      -3.73510968       2.39036533
H        5.19187906      -4.61714546       3.31057864
O        1.16919508      -3.63552459      -1.77306061
H        0.42787124      -4.28200382      -1.40424020
H        1.46829336      -4.00309504      -2.66910248
O        2.37882543      -3.10113470       4.93871620
H        3.03603194      -3.67694434       4.38170150
H        2.34357993      -2.33070842       4.35797355
O        0.73765173      -0.81775860      -6.13649233
H        1.45882989      -1.36995613      -6.42783633
H        1.04138230       0.10183711      -5.93900035
O        5.47940819      -2.43234877      -1.68281163
H        4.99697809      -2.90117263      -1.00955438
H        4.94708362      -1.91446605      -2.34462943
O        2.76602164      -0.60238727      -0.50787874
H        2.26462166      -0.03258079       0.07853568
H        2.26786569      -1.42498533      -0.42267767
O        1.39569117      -2.27088546       1.16172724
H        0.50643418      -1.81912699       0.92177172
H        1.64648007      -1.96598390       2.04333075
O        1.17923527       1.85605068      -5.00753034
H        1.86779910       1.48399139      -4.47294853
H        0.33079827       1.63376032      -4.64538191
O        3.47430371       1.59678771      -2.03044532
H        4.09601362       1.24864008      -1.40883311
H        2.70491734       1.00392615      -2.04871398
O        1.54136640       1.03563900       1.34129781
H        2.04068043       1.85960740       1.18347587
H        0.72579582       1.40855396       1.70025801
O        2.37172665      -0.69600816       3.32780139
H        2.35021374       0.06805288       2.70991030
H        2.69105796      -0.37279050       4.18581024
O        1.05046880       4.36629692      -3.66552539
H        1.20040155       3.64682574      -4.29650295
H        0.09521157       4.39245210      -3.49634182
O        2.75374431       4.09905287      -1.60645656
H        3.14891219       3.28203360      -2.05663277
H        2.20645366       4.53668691      -2.20504352
O        3.23282750       3.38184568       0.93195655
H        3.66652228       4.10105789       1.31984213
H        3.24932310       3.36991418      -0.02817925
O        4.53576590       1.13466693       2.75779960
H        4.53700972       0.85105885       1.86052794
H        4.99886572       1.98523826       2.77485376
O        4.41512426      -1.87339457       1.49396716
H        4.10788753      -1.39429101       2.20852359
H        5.28941135      -1.62558184       1.25429500
O        5.38714547       0.09694200      -0.26069457
H        4.42711605      -0.14030114      -0.31231107
H        5.83175601      -0.59272141      -0.75713033
