      -----------------------------------------------------------      
     |                   =====================                   |     
     |                           x T B                           |     
     |                   =====================                   |     
     |                         S. Grimme                         |     
     |          Mulliken Center for Theoretical Chemistry        |     
     |                    University of Bonn                     |     
      -----------------------------------------------------------      

   * xtb version 6.7.1pre (5071a88) compiled by 'Marcel@Raven' on 2024-07-23

   xtb is free software: you can redistribute it and/or modify it under
   the terms of the GNU Lesser General Public License as published by
   the Free Software Foundation, either version 3 of the License, or
   (at your option) any later version.
   
   xtb is distributed in the hope that it will be useful,
   but WITHOUT ANY WARRANTY; without even the implied warranty of
   MERCHANTABILITY or FITNESS FOR A PARTICULAR PURPOSE.  See the
   GNU Lesser General Public License for more details.
   
   Cite this work as:
   * C. Bannwarth, E. Caldeweyher, S. Ehlert, A. Hansen, P. Pracht,
     J. Seibert, S. Spicher, S. Grimme, WIREs Comput. Mol. Sci., 2020, 11,
     e01493. DOI: 10.1002/wcms.1493
   
   for GFN2-xTB:
   * C. Bannwarth, S. Ehlert and S. Grimme., J. Chem. Theory Comput., 2019,
     15, 1652-1671. DOI: 10.1021/acs.jctc.8b01176
   for GFN1-xTB:
   * S. Grimme, C. Bannwarth, P. Shushkov, J. Chem. Theory Comput., 2017,
     13, 1989-2009. DOI: 10.1021/acs.jctc.7b00118
   for GFN0-xTB:
   * P. Pracht, E. Caldeweyher, S. Ehlert, S. Grimme, ChemRxiv, 2019, preprint.
     DOI: 10.26434/chemrxiv.8326202.v1
   for GFN-FF:
   * S. Spicher and S. Grimme, Angew. Chem. Int. Ed., 2020, 59, 15665-15673.
     DOI: 10.1002/anie.202004239
   
   for ALPB and GBSA implicit solvation:
   * S. Ehlert, M. Stahn, S. Spicher, S. Grimme, J. Chem. Theory Comput.,
     2021, 17, 4250-4261. DOI: 10.1021/acs.jctc.1c00471
   
   for ddCOSMO and CPCM-X implicit solvation:
   * M. Stahn, S. Ehlert, S. Grimme, J. Phys. Chem. A,
     2023, XX, XXXX-XXXX. DOI: 10.1021/acs.jpca.3c04382
   
   for DFT-D4:
   * E. Caldeweyher, C. Bannwarth and S. Grimme, J. Chem. Phys., 2017,
     147, 034112. DOI: 10.1063/1.4993215
   * E. Caldeweyher, S. Ehlert, A. Hansen, H. Neugebauer, S. Spicher,
     C. Bannwarth and S. Grimme, J. Chem. Phys., 2019, 150, 154122.
     DOI: 10.1063/1.5090222
   * E. Caldeweyher, J.-M. Mewes, S. Ehlert and S. Grimme, Phys. Chem. Chem. Phys.
     2020, 22, 8499-8512. DOI: 10.1039/D0CP00502A
   
   for sTDA-xTB:
   * S. Grimme and C. Bannwarth, J. Chem. Phys., 2016, 145, 054103.
     DOI: 10.1063/1.4959605
   
   in the mass-spec context:
   * V. Asgeirsson, C. Bauer and S. Grimme, Chem. Sci., 2017, 8, 4879.
     DOI: 10.1039/c7sc00601b
   * J. Koopman and S. Grimme, ACS Omega 2019, 4, 12, 15120-15133.
     DOI: 10.1021/acsomega.9b02011
   
   for metadynamics refer to:
   * S. Grimme, J. Chem. Theory Comput., 2019, 155, 2847-2862
     DOI: 10.1021/acs.jctc.9b00143
   
   for SPH calculations refer to:
   * S. Spicher and S. Grimme, J. Chem. Theory Comput., 2021, 17, 1701-1714
     DOI: 10.1021/acs.jctc.0c01306
   
   for ONIOM refer to:
   * C. Plett, A. Katbashev, S. Ehlert, S. Grimme, M. Bursch,
     Phys. Chem. Chem. Phys., 2023, 25, 17860-17868. DOI: 10.1039/D3CP02178E
   
   for DIPRO refer to:
   * J. Kohn, N. Gildemeister, S. Grimme, D. Fazzi, A. Hansen,
     J. Chem. Phys., 2023, just accepted.
   
   for PTB refer to:
   * S. Grimme, M. Mueller, A. Hansen, J. Chem. Phys., 2023, 158, 124111.
     DOI: 10.1063/5.0137838
   
   with help from (in alphabetical order)
   P. Atkinson, C. Bannwarth, F. Bohle, G. Brandenburg, E. Caldeweyher
   M. Checinski, S. Dohm, S. Ehlert, S. Ehrlich, I. Gerasimov, C. Hölzer
   A. Katbashev, J. Kohn, J. Koopman, C. Lavigne, S. Lehtola, F. März, M. Müller,
   F. Musil, H. Neugebauer, J. Pisarek, C. Plett, P. Pracht, F. Pultar,
   J. Seibert, P. Shushkov, S. Spicher, M. Stahn, M. Steiner, T. Strunk,
   J. Stückrath, T. Rose, and J. Unsleber
   
 * started run on 2026/07/03 at 11:18:23.939     
   ID    Z sym.   atoms
    1    8 O      1, 4, 7, 10
    2    1 H      2, 3, 5, 6, 8, 9, 11, 12

           -------------------------------------------------
          |                Calculation Setup                |
           -------------------------------------------------

          program call               : C:\Users\pc\Documents\Research\xtb_metadynamics\tools\xtb-6.7.1\bin\xtb.exe start.xyz --opt tight --gfn 2 --chrg 0 --uhf 0
          coordinate file            : start.xyz
          omp threads                :                    16


molecular fragmentation (1/2 indicates fragments):
111222222222
# atoms in fragment 1/2:     3     9
 fragment masses (1/2) :       18.02       54.05
CMA distance (Bohr)    :   4.787
constraining FC (au)   :  0.0500

           -------------------------------------------------
          |                 G F N 2 - x T B                 |
           -------------------------------------------------

        Reference                      10.1021/acs.jctc.8b01176
      * Hamiltonian:
        H0-scaling (s, p, d)           1.850000    2.230000    2.230000
        zeta-weighting                 0.500000
      * Dispersion:
        s8                             2.700000
        a1                             0.520000
        a2                             5.000000
        s9                             5.000000
      * Repulsion:
        kExp                           1.500000    1.000000
        rExp                           1.000000
      * Coulomb:
        alpha                          2.000000
        third order                    shell-resolved
        anisotropic                    true
        a3                             3.000000
        a5                             4.000000
        cn-shift                       1.200000
        cn-exp                         4.000000
        max-rad                        5.000000


          ...................................................
          :                      SETUP                      :
          :.................................................:
          :  # basis functions                  24          :
          :  # atomic orbitals                  24          :
          :  # shells                           16          :
          :  # electrons                        32          :
          :  max. iterations                   250          :
          :  Hamiltonian                  GFN2-xTB          :
          :  restarted?                      false          :
          :  GBSA solvation                  false          :
          :  PC potential                    false          :
          :  electronic temp.          300.0000000     K    :
          :  accuracy                    1.0000000          :
          :  -> integral cutoff          0.2500000E+02      :
          :  -> integral neglect         0.1000000E-07      :
          :  -> SCF convergence          0.1000000E-05 Eh   :
          :  -> wf. convergence          0.1000000E-03 e    :
          :  Broyden damping             0.4000000          :
          :  net charge                          0          :
          :  unpaired electrons                  0          :
          ...................................................

 iter      E             dE          RMSdq      gap      omega  full diag
   1    -20.3638582 -0.203639E+02  0.431E+00   11.47       0.0  T
   2    -20.3748528 -0.109946E-01  0.239E+00   11.04       1.0  T
   3    -20.3764963 -0.164352E-02  0.500E-01   10.75       1.0  T
   4    -20.3768163 -0.320068E-03  0.924E-02   10.92       1.0  T
   5    -20.3768243 -0.794327E-05  0.651E-02   10.87       1.0  T
   6    -20.3768370 -0.126912E-04  0.126E-03   10.89      22.9  T
   7    -20.3768370  0.145516E-08  0.947E-04   10.89      30.5  T
   8    -20.3768370 -0.228339E-08  0.334E-05   10.89     864.0  T

   *** convergence criteria satisfied after 8 iterations ***

         #    Occupation            Energy/Eh            Energy/eV
      -------------------------------------------------------------
         1        2.0000           -0.6802701             -18.5111
       ...           ...                  ...                  ...
        10        2.0000           -0.5020437             -13.6613
        11        2.0000           -0.5020437             -13.6613
        12        2.0000           -0.4958434             -13.4926
        13        2.0000           -0.4497799             -12.2391
        14        2.0000           -0.4360438             -11.8654
        15        2.0000           -0.4360438             -11.8654
        16        2.0000           -0.4255162             -11.5789 (HOMO)
        17                         -0.0253020              -0.6885 (LUMO)
        18                          0.0462795               1.2593
        19                          0.0462795               1.2593
        20                          0.1390574               3.7839
        21                          0.2942787               8.0077
       ...                                ...                  ...
        24                          0.4368565              11.8875
      -------------------------------------------------------------
                  HL-Gap            0.4002142 Eh           10.8904 eV
             Fermi-level           -0.2254091 Eh           -6.1337 eV

 SCC (total)                   0 d,  0 h,  0 min,  0.005 sec
 SCC setup                      ...        0 min,  0.000 sec (  0.000%)
 Dispersion                     ...        0 min,  0.000 sec (  0.000%)
 classical contributions        ...        0 min,  0.000 sec (  0.000%)
 integral evaluation            ...        0 min,  0.001 sec ( 19.999%)
 iterations                     ...        0 min,  0.003 sec ( 60.002%)
 molecular gradient             ...        0 min,  0.000 sec (  0.000%)
 printout                       ...        0 min,  0.001 sec ( 19.999%)

         :::::::::::::::::::::::::::::::::::::::::::::::::::::
         ::                     SUMMARY                     ::
         :::::::::::::::::::::::::::::::::::::::::::::::::::::
         :: total energy             -20.236053375320 Eh    ::
         :: gradient norm              0.044743628271 Eh/a0 ::
         :: HOMO-LUMO gap             10.890381944260 eV    ::
         ::.................................................::
         :: SCC energy               -20.376826894089 Eh    ::
         :: -> isotropic ES            0.129100857162 Eh    ::
         :: -> anisotropic ES          0.018391034548 Eh    ::
         :: -> anisotropic XC         -0.003707948263 Eh    ::
         :: -> dispersion             -0.003317424918 Eh    ::
         :: repulsion energy           0.140773518769 Eh    ::
         :: add. restraining           0.000000000000 Eh    ::
         :: total charge              -0.000000000000 e     ::
         :::::::::::::::::::::::::::::::::::::::::::::::::::::

      ----------------------------------------------------------- 
     |                   =====================                   |
     |                        A N C O P T                        |
     |                   =====================                   |
     |               Approximate Normal Coordinate               |
     |                Rational Function Optimizer                |
      ----------------------------------------------------------- 
      ----------------------------------------------------------- 
     |                   =====================                   |
     |                        A N C O P T                        |
     |                   =====================                   |
     |               Approximate Normal Coordinate               |
     |                Rational Function Optimizer                |
      ----------------------------------------------------------- 

          ...................................................
          :                      SETUP                      :
          :.................................................:
          :   optimization level             tight          :
          :   max. optcycles                   200          :
          :   ANC micro-cycles                  20          :
          :   degrees of freedom                30          :
          :.................................................:
          :   RF solver                   davidson          :
          :   write xtbopt.log                true          :
          :   linear?                        false          :
          :   energy convergence         0.1000000E-05 Eh   :
          :   grad. convergence          0.8000000E-03 Eh/α :
          :   maxmium RF displ.          1.0000000          :
          :   Hlow (freq-cutoff)         0.1000000E-01      :
          :   Hmax (freq-cutoff)         5.0000000          :
          :   S6 in model hess.         20.0000000          :
          ...................................................

generating ANC from exact Hessian ...
Using Lindh-Hessian (1995)
 Shifting diagonal of input Hessian by   9.871126566479194E-003
 Lowest  eigenvalues of input Hessian
    0.000000    0.000000    0.000000    0.000000    0.000000    0.000000
    0.010000    0.010188    0.010590    0.011109    0.011109    0.011372
    0.011789    0.011789    0.011881    0.012470    0.012545    0.012948
 Highest eigenvalues
    1.247817    1.247977    1.415512    1.417133    1.417133    1.418726
 

........................................................................
.............................. CYCLE    1 ..............................
........................................................................

 iter      E             dE          RMSdq      gap      omega  full diag
   1    -20.3768370 -0.203768E+02  0.119E-05   10.89       0.0  T
   2    -20.3768370 -0.277112E-12  0.582E-06   10.89    4958.4  T
   3    -20.3768370 -0.213163E-13  0.220E-06   10.89   13106.0  T
     SCC iter.                  ...        0 min,  0.001 sec
     gradient                   ...        0 min,  0.001 sec
 * total energy  :   -20.2360534 Eh     change       -0.2238210E-11 Eh
   gradient norm :     0.0447439 Eh/α   predicted     0.0000000E+00 (-100.00%)
   displ. norm   :     0.8205869 α      lambda       -0.3300358E-01
   maximum displ.:     0.6359075 α      in ANC's #18, #11, #22, ...

........................................................................
.............................. CYCLE    2 ..............................
........................................................................

 iter      E             dE          RMSdq      gap      omega  full diag
   1    -20.3685021 -0.203685E+02  0.523E-01   10.65       0.0  T
   2    -20.3685489 -0.468059E-04  0.325E-01   10.64       1.0  T
   3    -20.3685763 -0.274157E-04  0.216E-02   10.63       1.3  T
   4    -20.3685764 -0.957318E-07  0.319E-03   10.63       9.0  T
   5    -20.3685764 -0.951324E-08  0.638E-04   10.63      45.2  T
   6    -20.3685764 -0.479389E-09  0.247E-04   10.63     116.9  T
     SCC iter.                  ...        0 min,  0.002 sec
     gradient                   ...        0 min,  0.001 sec
 * total energy  :   -20.2477645 Eh     change       -0.1171116E-01 Eh
   gradient norm :     0.0709023 Eh/α   predicted    -0.2761348E-01 ( 135.79%)
   displ. norm   :     0.6935499 α      lambda       -0.1773340E-01
   maximum displ.:     0.6744792 α      in ANC's #11, #18, #26, ...

........................................................................
.............................. CYCLE    3 ..............................
........................................................................

 iter      E             dE          RMSdq      gap      omega  full diag
   1    -20.4045907 -0.204046E+02  0.314E-01   11.76       0.0  T
   2    -20.4046577 -0.669694E-04  0.178E-01   11.73       1.0  T
   3    -20.4046700 -0.123854E-04  0.407E-02   11.72       1.0  T
   4    -20.4046716 -0.153215E-05  0.630E-03   11.73       4.6  T
   5    -20.4046716 -0.464236E-08  0.714E-04   11.73      40.4  T
   6    -20.4046716 -0.267587E-09  0.137E-04   11.73     210.8  T
     SCC iter.                  ...        0 min,  0.002 sec
     gradient                   ...        0 min,  0.001 sec
 * total energy  :   -20.2592251 Eh     change       -0.1146058E-01 Eh
   gradient norm :     0.0152343 Eh/α   predicted    -0.1313169E-01 (  14.58%)
   displ. norm   :     0.5742132 α      lambda       -0.6152091E-02
   maximum displ.:     0.5687161 α      in ANC's #11, #18, #22, ...

........................................................................
.............................. CYCLE    4 ..............................
........................................................................

 iter      E             dE          RMSdq      gap      omega  full diag
   1    -20.4075800 -0.204076E+02  0.780E-02   11.94       0.0  T
   2    -20.4075837 -0.367157E-05  0.428E-02   11.93       1.0  T
   3    -20.4075842 -0.446566E-06  0.828E-03   11.92       3.5  T
   4    -20.4075842 -0.687530E-07  0.858E-04   11.93      33.7  T
   5    -20.4075842 -0.131337E-09  0.123E-04   11.93     235.2  T
     SCC iter.                  ...        0 min,  0.001 sec
     gradient                   ...        0 min,  0.001 sec
 * total energy  :   -20.2641979 Eh     change       -0.4972751E-02 Eh
   gradient norm :     0.0091637 Eh/α   predicted    -0.4090283E-02 ( -17.75%)
   displ. norm   :     0.5534321 α      lambda       -0.3845577E-02
   maximum displ.:     0.5449801 α      in ANC's #11, #18, #22, ...

........................................................................
.............................. CYCLE    5 ..............................
........................................................................

 iter      E             dE          RMSdq      gap      omega  full diag
   1    -20.4072366 -0.204072E+02  0.668E-02   12.09       0.0  T
   2    -20.4072382 -0.160358E-05  0.391E-02   12.08       1.0  T
   3    -20.4072386 -0.338335E-06  0.566E-03   12.08       5.1  T
   4    -20.4072386 -0.454290E-07  0.999E-04   12.08      28.9  T
   5    -20.4072386 -0.882814E-10  0.628E-05   12.08     459.3  T
     SCC iter.                  ...        0 min,  0.002 sec
     gradient                   ...        0 min,  0.000 sec
 * total energy  :   -20.2673517 Eh     change       -0.3153860E-02 Eh
   gradient norm :     0.0057383 Eh/α   predicted    -0.2511708E-02 ( -20.36%)
   displ. norm   :     0.4651568 α      lambda       -0.2230802E-02
   maximum displ.:     0.4553906 α      in ANC's #11, #18, #26, ...

........................................................................
.............................. CYCLE    6 ..............................
........................................................................

 iter      E             dE          RMSdq      gap      omega  full diag
   1    -20.4076668 -0.204077E+02  0.614E-02   12.28       0.0  T
   2    -20.4076676 -0.756920E-06  0.379E-02   12.28       1.0  T
   3    -20.4076679 -0.339756E-06  0.319E-03   12.28       9.1  T
   4    -20.4076680 -0.147628E-07  0.857E-04   12.28      33.7  T
   5    -20.4076680 -0.809202E-10  0.466E-05   12.28     620.1  T
     SCC iter.                  ...        0 min,  0.002 sec
     gradient                   ...        0 min,  0.001 sec
 * total energy  :   -20.2692919 Eh     change       -0.1940206E-02 Eh
   gradient norm :     0.0058633 Eh/α   predicted    -0.1356742E-02 ( -30.07%)
   displ. norm   :     0.4167799 α      lambda       -0.1566913E-02
   maximum displ.:     0.4062849 α      in ANC's #11, #18, #26, ...

........................................................................
.............................. CYCLE    7 ..............................
........................................................................

 iter      E             dE          RMSdq      gap      omega  full diag
   1    -20.4089547 -0.204090E+02  0.623E-02   12.51       0.0  T
   2    -20.4089553 -0.588946E-06  0.389E-02   12.51       1.0  T
   3    -20.4089556 -0.334705E-06  0.238E-03   12.51      12.1  T
   4    -20.4089557 -0.431616E-08  0.709E-04   12.51      40.7  T
   5    -20.4089557 -0.122206E-09  0.478E-05   12.51     604.1  T
     SCC iter.                  ...        0 min,  0.002 sec
     gradient                   ...        0 min,  0.000 sec
 * total energy  :   -20.2706843 Eh     change       -0.1392355E-02 Eh
   gradient norm :     0.0047149 Eh/α   predicted    -0.9195359E-03 ( -33.96%)
   displ. norm   :     0.3844681 α      lambda       -0.1147765E-02
   maximum displ.:     0.3750202 α      in ANC's #11, #18, #26, ...

........................................................................
.............................. CYCLE    8 ..............................
........................................................................

 iter      E             dE          RMSdq      gap      omega  full diag
   1    -20.4104556 -0.204105E+02  0.572E-02   12.73       0.0  T
   2    -20.4104561 -0.517844E-06  0.356E-02   12.73       1.0  T
   3    -20.4104563 -0.270698E-06  0.238E-03   12.72      12.1  T
   4    -20.4104564 -0.666848E-08  0.706E-04   12.73      40.9  T
   5    -20.4104564 -0.639311E-10  0.448E-05   12.73     644.2  T
     SCC iter.                  ...        0 min,  0.001 sec
     gradient                   ...        0 min,  0.000 sec
 * total energy  :   -20.2717181 Eh     change       -0.1033837E-02 Eh
   gradient norm :     0.0033157 Eh/α   predicted    -0.6587124E-03 ( -36.28%)
   displ. norm   :     0.3464996 α      lambda       -0.8412633E-03
   maximum displ.:     0.3387105 α      in ANC's #11, #18, #26, ...

........................................................................
.............................. CYCLE    9 ..............................
........................................................................

 iter      E             dE          RMSdq      gap      omega  full diag
   1    -20.4115860 -0.204116E+02  0.490E-02   12.90       0.0  T
   2    -20.4115865 -0.471965E-06  0.304E-02   12.90       1.0  T
   3    -20.4115867 -0.202106E-06  0.256E-03   12.90      11.3  T
   4    -20.4115867 -0.108079E-07  0.628E-04   12.90      46.0  T
   5    -20.4115867 -0.247660E-10  0.408E-05   12.90     707.0  T
     SCC iter.                  ...        0 min,  0.001 sec
     gradient                   ...        0 min,  0.000 sec
 * total energy  :   -20.2724928 Eh     change       -0.7746534E-03 Eh
   gradient norm :     0.0026034 Eh/α   predicted    -0.4711382E-03 ( -39.18%)
   displ. norm   :     0.3098036 α      lambda       -0.6434958E-03
   maximum displ.:     0.3033278 α      in ANC's #11, #18, #26, ...

........................................................................
.............................. CYCLE   10 ..............................
........................................................................

 iter      E             dE          RMSdq      gap      omega  full diag
   1    -20.4122767 -0.204123E+02  0.423E-02   13.03       0.0  T
   2    -20.4122771 -0.426178E-06  0.261E-02   13.03       1.1  T
   3    -20.4122773 -0.153810E-06  0.266E-03   13.03      10.8  T
   4    -20.4122773 -0.121516E-07  0.538E-04   13.03      53.7  T
   5    -20.4122773 -0.145164E-10  0.319E-05   13.03     906.1  T
     SCC iter.                  ...        0 min,  0.001 sec
     gradient                   ...        0 min,  0.001 sec
 * total energy  :   -20.2730955 Eh     change       -0.6027294E-03 Eh
   gradient norm :     0.0021596 Eh/α   predicted    -0.3526309E-03 ( -41.49%)
   displ. norm   :     0.2807413 α      lambda       -0.5146567E-03
   maximum displ.:     0.2751475 α      in ANC's #11, #18, #26, ...

........................................................................
.............................. CYCLE   11 ..............................
........................................................................

 iter      E             dE          RMSdq      gap      omega  full diag
   1    -20.4127019 -0.204127E+02  0.374E-02   13.14       0.0  T
   2    -20.4127023 -0.360666E-06  0.230E-02   13.13       1.3  T
   3    -20.4127024 -0.121062E-06  0.254E-03   13.13      11.3  T
   4    -20.4127024 -0.108802E-07  0.473E-04   13.13      61.0  T
   5    -20.4127024 -0.105693E-10  0.238E-05   13.13    1211.0  T
     SCC iter.                  ...        0 min,  0.002 sec
     gradient                   ...        0 min,  0.000 sec
 * total energy  :   -20.2735821 Eh     change       -0.4866298E-03 Eh
   gradient norm :     0.0017754 Eh/α   predicted    -0.2776087E-03 ( -42.95%)
   displ. norm   :     0.3850084 α      lambda       -0.4211992E-03
   maximum displ.:     0.3775634 α      in ANC's #11, #18, #26, ...

........................................................................
.............................. CYCLE   12 ..............................
........................................................................

 iter      E             dE          RMSdq      gap      omega  full diag
   1    -20.4131126 -0.204131E+02  0.501E-02   13.27       0.0  T
   2    -20.4131132 -0.597882E-06  0.309E-02   13.26       1.0  T
   3    -20.4131134 -0.213518E-06  0.319E-03   13.26       9.1  T
   4    -20.4131135 -0.174065E-07  0.626E-04   13.26      46.1  T
   5    -20.4131135 -0.183533E-10  0.450E-05   13.26     641.6  T
     SCC iter.                  ...        0 min,  0.001 sec
     gradient                   ...        0 min,  0.000 sec
 * total energy  :   -20.2741702 Eh     change       -0.5880142E-03 Eh
   gradient norm :     0.0015970 Eh/α   predicted    -0.2244715E-03 ( -61.83%)
   displ. norm   :     0.3401246 α      lambda       -0.3260802E-03
   maximum displ.:     0.3324832 α      in ANC's #11, #18, #16, ...

........................................................................
.............................. CYCLE   13 ..............................
........................................................................

 iter      E             dE          RMSdq      gap      omega  full diag
   1    -20.4135193 -0.204135E+02  0.602E-02   13.36       0.0  T
   2    -20.4135209 -0.162763E-05  0.359E-02   13.36       1.0  T
   3    -20.4135213 -0.378681E-06  0.649E-03   13.37       4.5  T
   4    -20.4135213 -0.490484E-07  0.102E-03   13.36      28.2  T
   5    -20.4135213 -0.811333E-10  0.763E-05   13.36     378.3  T
   6    -20.4135213 -0.142819E-11  0.258E-05   13.36    1117.6  T
     SCC iter.                  ...        0 min,  0.001 sec
     gradient                   ...        0 min,  0.000 sec
 * total energy  :   -20.2745727 Eh     change       -0.4025389E-03 Eh
   gradient norm :     0.0094749 Eh/α   predicted    -0.1714248E-03 ( -57.41%)
   displ. norm   :     0.2118147 α      lambda       -0.3793795E-03
   maximum displ.:     0.2058592 α      in ANC's #11, #18, #16, ...

........................................................................
.............................. CYCLE   14 ..............................
........................................................................

 iter      E             dE          RMSdq      gap      omega  full diag
   1    -20.4139910 -0.204140E+02  0.506E-02   13.45       0.0  T
   2    -20.4139925 -0.144958E-05  0.296E-02   13.45       1.0  T
   3    -20.4139928 -0.299518E-06  0.622E-03   13.45       4.6  T
   4    -20.4139928 -0.391844E-07  0.955E-04   13.45      30.2  T
   5    -20.4139928 -0.756302E-10  0.644E-05   13.45     448.2  T
     SCC iter.                  ...        0 min,  0.001 sec
     gradient                   ...        0 min,  0.001 sec
 * total energy  :   -20.2748850 Eh     change       -0.3122788E-03 Eh
   gradient norm :     0.0017613 Eh/α   predicted    -0.1982021E-03 ( -36.53%)
   displ. norm   :     0.3150393 α      lambda       -0.2570673E-03
   maximum displ.:     0.3046692 α      in ANC's #11, #18, #12, ...

........................................................................
.............................. CYCLE   15 ..............................
........................................................................

 iter      E             dE          RMSdq      gap      omega  full diag
   1    -20.4138496 -0.204138E+02  0.870E-02   13.48       0.0  T
   2    -20.4138543 -0.464519E-05  0.504E-02   13.50       1.0  T
   3    -20.4138552 -0.912497E-06  0.111E-02   13.50       2.6  T
   4    -20.4138553 -0.119494E-06  0.173E-03   13.50      16.7  T
   5    -20.4138553 -0.266251E-09  0.150E-04   13.50     192.1  T
   6    -20.4138553 -0.124629E-10  0.430E-05   13.50     670.9  T
     SCC iter.                  ...        0 min,  0.001 sec
     gradient                   ...        0 min,  0.001 sec
 * total energy  :   -20.2750415 Eh     change       -0.1565560E-03 Eh
   gradient norm :     0.0179508 Eh/α   predicted    -0.1342071E-03 ( -14.28%)
   displ. norm   :     0.1697556 α      lambda       -0.4413189E-03
   maximum displ.:     0.1614825 α      in ANC's #11, #12, #18, ...

........................................................................
.............................. CYCLE   16 ..............................
........................................................................

 iter      E             dE          RMSdq      gap      omega  full diag
   1    -20.4140919 -0.204141E+02  0.658E-02   13.56       0.0  T
   2    -20.4140947 -0.285367E-05  0.379E-02   13.57       1.0  T
   3    -20.4140953 -0.550047E-06  0.870E-03   13.57       3.3  T
   4    -20.4140954 -0.702598E-07  0.133E-03   13.57      21.7  T
   5    -20.4140954 -0.135010E-09  0.871E-05   13.57     331.3  T
   6    -20.4140954 -0.204636E-11  0.276E-05   13.57    1046.9  T
     SCC iter.                  ...        0 min,  0.001 sec
     gradient                   ...        0 min,  0.001 sec
 * total energy  :   -20.2753551 Eh     change       -0.3136159E-03 Eh
   gradient norm :     0.0101776 Eh/α   predicted    -0.2270151E-03 ( -27.61%)
   displ. norm   :     0.1953019 α      lambda       -0.3333151E-03
   maximum displ.:     0.1800968 α      in ANC's #11, #15, #9, ...

........................................................................
.............................. CYCLE   17 ..............................
........................................................................

 iter      E             dE          RMSdq      gap      omega  full diag
   1    -20.4149899 -0.204150E+02  0.565E-02   13.64       0.0  T
   2    -20.4149914 -0.144490E-05  0.334E-02   13.64       1.0  T
   3    -20.4149918 -0.448423E-06  0.600E-03   13.64       4.8  T
   4    -20.4149919 -0.454651E-07  0.160E-03   13.64      18.1  T
   5    -20.4149919 -0.132884E-08  0.174E-04   13.64     166.4  T
   6    -20.4149919 -0.299352E-10  0.732E-05   13.64     394.2  T
     SCC iter.                  ...        0 min,  0.002 sec
     gradient                   ...        0 min,  0.001 sec
 * total energy  :   -20.2754953 Eh     change       -0.1401825E-03 Eh
   gradient norm :     0.0150162 Eh/α   predicted    -0.1730122E-03 (  23.42%)
   displ. norm   :     0.1472929 α      lambda       -0.3212650E-03
   maximum displ.:     0.1352660 α      in ANC's #11, #15, #9, ...

........................................................................
.............................. CYCLE   18 ..............................
........................................................................

 iter      E             dE          RMSdq      gap      omega  full diag
   1    -20.4156967 -0.204157E+02  0.481E-02   13.69       0.0  T
   2    -20.4156978 -0.116265E-05  0.283E-02   13.70       1.0  T
   3    -20.4156982 -0.317830E-06  0.543E-03   13.70       5.3  T
   4    -20.4156982 -0.353427E-07  0.129E-03   13.70      22.3  T
   5    -20.4156982 -0.728928E-09  0.132E-04   13.70     219.3  T
   6    -20.4156982 -0.158096E-10  0.576E-05   13.70     501.4  T
     SCC iter.                  ...        0 min,  0.002 sec
     gradient                   ...        0 min,  0.000 sec
 * total energy  :   -20.2756940 Eh     change       -0.1986562E-03 Eh
   gradient norm :     0.0088794 Eh/α   predicted    -0.1641159E-03 ( -17.39%)
   displ. norm   :     0.1532087 α      lambda       -0.2192863E-03
   maximum displ.:     0.1344290 α      in ANC's #11, #17, #5, ...

........................................................................
.............................. CYCLE   19 ..............................
........................................................................

 iter      E             dE          RMSdq      gap      omega  full diag
   1    -20.4144141 -0.204144E+02  0.951E-02   13.60       0.0  T
   2    -20.4144204 -0.632957E-05  0.542E-02   13.62       1.0  T
   3    -20.4144216 -0.118833E-05  0.128E-02   13.63       2.3  T
   4    -20.4144218 -0.149273E-06  0.208E-03   13.62      13.9  T
   5    -20.4144218 -0.552660E-09  0.206E-04   13.62     140.4  T
   6    -20.4144218 -0.270362E-10  0.581E-05   13.62     497.0  T
     SCC iter.                  ...        0 min,  0.001 sec
     gradient                   ...        0 min,  0.001 sec
 * total energy  :   -20.2755835 Eh     change        0.1104576E-03 Eh
   gradient norm :     0.0216624 Eh/α   predicted    -0.1122178E-03 (-201.59%)
   displ. norm   :     0.1162958 α      lambda       -0.6071044E-03
   maximum displ.:     0.0964695 α      in ANC's #11, #17, #5, ...

........................................................................
.............................. CYCLE   20 ..............................
........................................................................

 iter      E             dE          RMSdq      gap      omega  full diag
   1    -20.4133060 -0.204133E+02  0.888E-02   13.66       0.0  T
   2    -20.4133117 -0.564308E-05  0.505E-02   13.68       1.0  T
   3    -20.4133127 -0.105087E-05  0.121E-02   13.68       2.4  T
   4    -20.4133128 -0.131059E-06  0.192E-03   13.68      15.0  T
   5    -20.4133128 -0.411433E-09  0.138E-04   13.68     208.6  T
   6    -20.4133128 -0.530775E-11  0.477E-05   13.68     605.7  T
     SCC iter.                  ...        0 min,  0.001 sec
     gradient                   ...        0 min,  0.000 sec
 * total energy  :   -20.2759097 Eh     change       -0.3261710E-03 Eh
   gradient norm :     0.0097659 Eh/α   predicted    -0.3076583E-03 (  -5.68%)
   displ. norm   :     0.1489903 α      lambda       -0.3080794E-03
   maximum displ.:     0.1108647 α      in ANC's #11, #6, #17, ...
 * RMSD in coord.:     1.9229268 α      energy gain  -0.3985633E-01 Eh

generating ANC from exact Hessian ...
Using Lindh-Hessian (1995)
 Shifting diagonal of input Hessian by   1.002820872383677E-002
 Lowest  eigenvalues of input Hessian
    0.000000    0.000000    0.000000    0.010000    0.010006    0.000000
    0.000000    0.000000    0.010073    0.010077    0.010077    0.010086
    0.010170    0.010173    0.010178    0.010242    0.010436    0.010457
 Highest eigenvalues
    1.215538    1.221962    1.448820    1.451717    1.455167    1.470258
 

........................................................................
.............................. CYCLE   21 ..............................
........................................................................

 iter      E             dE          RMSdq      gap      omega  full diag
   1    -20.4151338 -0.204151E+02  0.680E-02   13.74       0.0  T
   2    -20.4151356 -0.173353E-05  0.405E-02   13.74       1.0  T
   3    -20.4151363 -0.713612E-06  0.651E-03   13.74       4.4  T
   4    -20.4151363 -0.544615E-07  0.206E-03   13.74      14.0  T
   5    -20.4151363 -0.303101E-08  0.234E-04   13.74     123.3  T
   6    -20.4151363 -0.557527E-10  0.985E-05   13.74     293.2  T
     SCC iter.                  ...        0 min,  0.001 sec
     gradient                   ...        0 min,  0.001 sec
 * total energy  :   -20.2758739 Eh     change        0.3579003E-04 Eh
   gradient norm :     0.0201926 Eh/α   predicted     0.0000000E+00 (-100.00%)
   displ. norm   :     0.0965014 α      lambda       -0.3830973E-03
   maximum displ.:     0.0931477 α      in ANC's #10, #6, #28, ...

........................................................................
.............................. CYCLE   22 ..............................
........................................................................

 iter      E             dE          RMSdq      gap      omega  full diag
   1    -20.4148574 -0.204149E+02  0.479E-02   13.77       0.0  T
   2    -20.4148580 -0.612493E-06  0.297E-02   13.77       1.0  T
   3    -20.4148583 -0.330800E-06  0.355E-03   13.77       8.1  T
   4    -20.4148583 -0.116560E-07  0.107E-03   13.77      26.9  T
   5    -20.4148583 -0.600508E-09  0.125E-04   13.77     231.3  T
   6    -20.4148583 -0.137845E-10  0.574E-05   13.77     503.3  T
     SCC iter.                  ...        0 min,  0.002 sec
     gradient                   ...        0 min,  0.000 sec
 * total energy  :   -20.2761500 Eh     change       -0.2760437E-03 Eh
   gradient norm :     0.0052726 Eh/α   predicted    -0.1933312E-03 ( -29.96%)
   displ. norm   :     0.1462902 α      lambda       -0.1929388E-03
   maximum displ.:     0.1396208 α      in ANC's #10, #6, #15, ...

........................................................................
.............................. CYCLE   23 ..............................
........................................................................

 iter      E             dE          RMSdq      gap      omega  full diag
   1    -20.4143611 -0.204144E+02  0.691E-02   13.79       0.0  T
   2    -20.4143620 -0.900594E-06  0.431E-02   13.79       1.0  T
   3    -20.4143624 -0.476881E-06  0.363E-03   13.79       8.0  T
   4    -20.4143625 -0.139639E-07  0.106E-03   13.79      27.3  T
   5    -20.4143625 -0.363020E-09  0.110E-04   13.79     262.3  T
   6    -20.4143625 -0.843769E-11  0.520E-05   13.79     555.0  T
     SCC iter.                  ...        0 min,  0.001 sec
     gradient                   ...        0 min,  0.001 sec
 * total energy  :   -20.2762918 Eh     change       -0.1418815E-03 Eh
   gradient norm :     0.0053349 Eh/α   predicted    -0.9853244E-04 ( -30.55%)
   displ. norm   :     0.1121495 α      lambda       -0.9906824E-04
   maximum displ.:     0.1035467 α      in ANC's #10, #5, #4, ...

........................................................................
.............................. CYCLE   24 ..............................
........................................................................

 iter      E             dE          RMSdq      gap      omega  full diag
   1    -20.4142215 -0.204142E+02  0.478E-02   13.81       0.0  T
   2    -20.4142219 -0.350124E-06  0.299E-02   13.81       1.0  T
   3    -20.4142221 -0.198214E-06  0.198E-03   13.80      14.5  T
   4    -20.4142221 -0.341942E-08  0.574E-04   13.81      50.3  T
   5    -20.4142221 -0.906972E-10  0.550E-05   13.81     524.9  T
     SCC iter.                  ...        0 min,  0.002 sec
     gradient                   ...        0 min,  0.001 sec
 * total energy  :   -20.2763888 Eh     change       -0.9698856E-04 Eh
   gradient norm :     0.0075009 Eh/α   predicted    -0.5015729E-04 ( -48.29%)
   displ. norm   :     0.1605195 α      lambda       -0.1583250E-03
   maximum displ.:     0.1366538 α      in ANC's #10, #5, #4, ...

........................................................................
.............................. CYCLE   25 ..............................
........................................................................

 iter      E             dE          RMSdq      gap      omega  full diag
   1    -20.4137339 -0.204137E+02  0.820E-02   13.82       0.0  T
   2    -20.4137349 -0.995027E-06  0.513E-02   13.81       1.0  T
   3    -20.4137354 -0.555844E-06  0.335E-03   13.81       8.6  T
   4    -20.4137354 -0.101298E-07  0.966E-04   13.81      29.9  T
   5    -20.4137354 -0.212385E-09  0.845E-05   13.81     341.8  T
     SCC iter.                  ...        0 min,  0.001 sec
     gradient                   ...        0 min,  0.001 sec
 * total energy  :   -20.2765482 Eh     change       -0.1593989E-03 Eh
   gradient norm :     0.0087962 Eh/α   predicted    -0.8120158E-04 ( -49.06%)
   displ. norm   :     0.9751261 α      lambda       -0.9913050E-03
   maximum displ.:     0.8390754 α      in ANC's #10, #5, #4, ...

........................................................................
.............................. CYCLE   26 ..............................
........................................................................

 iter      E             dE          RMSdq      gap      omega  full diag
   1    -20.3945721 -0.203946E+02  0.484E-01   13.15       0.0  T
   2    -20.3946421 -0.700013E-04  0.293E-01   13.15       1.0  T
   3    -20.3946621 -0.200129E-04  0.399E-02   13.14       1.0  T
   4    -20.3946642 -0.210854E-05  0.766E-03   13.13       3.8  T
   5    -20.3946642 -0.711423E-08  0.945E-04   13.13      30.5  T
   6    -20.3946642 -0.899853E-09  0.311E-04   13.13      92.8  T
     SCC iter.                  ...        0 min,  0.001 sec
     gradient                   ...        0 min,  0.000 sec
 * total energy  :   -20.2747635 Eh     change        0.1784718E-02 Eh
   gradient norm :     0.0663439 Eh/α   predicted    -0.9669414E-03 (-154.18%)
   displ. norm   :     0.3091974 α      lambda       -0.7101113E-02
   maximum displ.:     0.2113705 α      in ANC's #5, #4, #3, ...

........................................................................
.............................. CYCLE   27 ..............................
........................................................................

 iter      E             dE          RMSdq      gap      omega  full diag
   1    -20.4170897 -0.204171E+02  0.360E-01   13.99       0.0  T
   2    -20.4171556 -0.658837E-04  0.213E-01   13.96       1.0  T
   3    -20.4171710 -0.153529E-04  0.415E-02   13.95       1.0  T
   4    -20.4171729 -0.197124E-05  0.791E-03   13.96       3.6  T
   5    -20.4171729 -0.657977E-08  0.893E-04   13.96      32.3  T
   6    -20.4171729 -0.614268E-09  0.192E-04   13.96     150.3  T
     SCC iter.                  ...        0 min,  0.002 sec
     gradient                   ...        0 min,  0.000 sec
 * total energy  :   -20.2770951 Eh     change       -0.2331549E-02 Eh
   gradient norm :     0.0196306 Eh/α   predicted    -0.3890001E-02 (  66.84%)
   displ. norm   :     0.1143437 α      lambda       -0.6686484E-03
   maximum displ.:     0.0447464 α      in ANC's #18, #3, #17, ...

........................................................................
.............................. CYCLE   28 ..............................
........................................................................

 iter      E             dE          RMSdq      gap      omega  full diag
   1    -20.4155799 -0.204156E+02  0.957E-02   13.95       0.0  T
   2    -20.4155832 -0.322570E-05  0.568E-02   13.94       1.0  T
   3    -20.4155841 -0.951082E-06  0.885E-03   13.94       3.3  T
   4    -20.4155842 -0.102996E-06  0.226E-03   13.94      12.8  T
   5    -20.4155842 -0.184688E-08  0.201E-04   13.94     143.7  T
   6    -20.4155842 -0.280025E-10  0.967E-05   13.94     298.7  T
     SCC iter.                  ...        0 min,  0.002 sec
     gradient                   ...        0 min,  0.000 sec
 * total energy  :   -20.2774151 Eh     change       -0.3199966E-03 Eh
   gradient norm :     0.0094769 Eh/α   predicted    -0.3386965E-03 (   5.84%)
   displ. norm   :     0.4092326 α      lambda       -0.4472218E-03
   maximum displ.:     0.3783967 α      in ANC's #10, #11, #6, ...

........................................................................
.............................. CYCLE   29 ..............................
........................................................................

 iter      E             dE          RMSdq      gap      omega  full diag
   1    -20.4132738 -0.204133E+02  0.107E-01   13.93       0.0  T
   2    -20.4132760 -0.212722E-05  0.659E-02   13.93       1.0  T
   3    -20.4132769 -0.905768E-06  0.635E-03   13.93       4.5  T
   4    -20.4132769 -0.542079E-07  0.179E-03   13.93      16.1  T
   5    -20.4132769 -0.917357E-09  0.172E-04   13.93     168.3  T
   6    -20.4132769 -0.202611E-10  0.821E-05   13.93     351.8  T
     SCC iter.                  ...        0 min,  0.002 sec
     gradient                   ...        0 min,  0.000 sec
 * total energy  :   -20.2777828 Eh     change       -0.3677786E-03 Eh
   gradient norm :     0.0115935 Eh/α   predicted    -0.2610599E-03 ( -29.02%)
   displ. norm   :     0.7895700 α      lambda       -0.7366834E-03
   maximum displ.:     0.7382945 α      in ANC's #10, #6, #11, ...

........................................................................
.............................. CYCLE   30 ..............................
........................................................................

 iter      E             dE          RMSdq      gap      omega  full diag
   1    -20.4108679 -0.204109E+02  0.149E-01   13.88       0.0  T
   2    -20.4108711 -0.314913E-05  0.917E-02   13.89       1.0  T
   3    -20.4108727 -0.161108E-05  0.783E-03   13.89       3.7  T
   4    -20.4108727 -0.665292E-07  0.248E-03   13.88      11.7  T
   5    -20.4108727 -0.312052E-08  0.293E-04   13.88      98.6  T
   6    -20.4108727 -0.634408E-10  0.138E-04   13.88     208.8  T
     SCC iter.                  ...        0 min,  0.001 sec
     gradient                   ...        0 min,  0.001 sec
 * total energy  :   -20.2783602 Eh     change       -0.5773848E-03 Eh
   gradient norm :     0.0182798 Eh/α   predicted    -0.5979727E-03 (   3.57%)
   displ. norm   :     0.6626775 α      lambda       -0.7190144E-03
   maximum displ.:     0.6304942 α      in ANC's #10, #6, #11, ...

........................................................................
.............................. CYCLE   31 ..............................
........................................................................

 iter      E             dE          RMSdq      gap      omega  full diag
   1    -20.4140736 -0.204141E+02  0.861E-02   13.93       0.0  T
   2    -20.4140754 -0.186029E-05  0.519E-02   13.93       1.0  T
   3    -20.4140760 -0.581668E-06  0.651E-03   13.92       4.4  T
   4    -20.4140761 -0.609238E-07  0.167E-03   13.92      17.3  T
   5    -20.4140761 -0.103928E-08  0.170E-04   13.92     169.9  T
   6    -20.4140761 -0.198135E-10  0.788E-05   13.92     366.4  T
     SCC iter.                  ...        0 min,  0.001 sec
     gradient                   ...        0 min,  0.000 sec
 * total energy  :   -20.2788271 Eh     change       -0.4668946E-03 Eh
   gradient norm :     0.0188615 Eh/α   predicted    -0.5173991E-03 (  10.82%)
   displ. norm   :     0.6525937 α      lambda       -0.8760177E-03
   maximum displ.:     0.6186255 α      in ANC's #10, #3, #14, ...

........................................................................
.............................. CYCLE   32 ..............................
........................................................................

 iter      E             dE          RMSdq      gap      omega  full diag
   1    -20.4128862 -0.204129E+02  0.182E-01   13.80       0.0  T
   2    -20.4128988 -0.126329E-04  0.109E-01   13.78       1.0  T
   3    -20.4129032 -0.434701E-05  0.177E-02   13.76       1.6  T
   4    -20.4129035 -0.390980E-06  0.449E-03   13.76       6.4  T
   5    -20.4129036 -0.783228E-08  0.542E-04   13.76      53.2  T
   6    -20.4129036 -0.207343E-09  0.237E-04   13.76     121.9  T
     SCC iter.                  ...        0 min,  0.002 sec
     gradient                   ...        0 min,  0.001 sec
 * total energy  :   -20.2787978 Eh     change        0.2926828E-04 Eh
   gradient norm :     0.0348342 Eh/α   predicted    -0.6245445E-03 (*******%)
   displ. norm   :     0.2881593 α      lambda       -0.1459874E-02
   maximum displ.:     0.2130217 α      in ANC's #10, #6, #16, ...

........................................................................
.............................. CYCLE   33 ..............................
........................................................................

 iter      E             dE          RMSdq      gap      omega  full diag
   1    -20.4148330 -0.204148E+02  0.143E-01   14.03       0.0  T
   2    -20.4148401 -0.711283E-05  0.857E-02   14.04       1.0  T
   3    -20.4148425 -0.237148E-05  0.132E-02   14.05       2.2  T
   4    -20.4148427 -0.223101E-06  0.344E-03   14.05       8.4  T
   5    -20.4148427 -0.424324E-08  0.351E-04   14.05      82.2  T
   6    -20.4148427 -0.878977E-10  0.162E-04   14.05     178.4  T
     SCC iter.                  ...        0 min,  0.002 sec
     gradient                   ...        0 min,  0.000 sec
 * total energy  :   -20.2794852 Eh     change       -0.6873939E-03 Eh
   gradient norm :     0.0140970 Eh/α   predicted    -0.7905527E-03 (  15.01%)
   displ. norm   :     0.5707021 α      lambda       -0.6167754E-03
   maximum displ.:     0.5283042 α      in ANC's #10, #11, #6, ...

........................................................................
.............................. CYCLE   34 ..............................
........................................................................

 iter      E             dE          RMSdq      gap      omega  full diag
   1    -20.4118852 -0.204119E+02  0.142E-01   13.78       0.0  T
   2    -20.4118925 -0.727529E-05  0.839E-02   13.76       1.0  T
   3    -20.4118943 -0.175661E-05  0.134E-02   13.74       2.2  T
   4    -20.4118945 -0.231997E-06  0.293E-03   13.75       9.8  T
   5    -20.4118945 -0.264945E-08  0.294E-04   13.75      98.2  T
   6    -20.4118945 -0.595470E-10  0.125E-04   13.75     230.2  T
     SCC iter.                  ...        0 min,  0.001 sec
     gradient                   ...        0 min,  0.000 sec
 * total energy  :   -20.2795780 Eh     change       -0.9272420E-04 Eh
   gradient norm :     0.0239292 Eh/α   predicted    -0.4088231E-03 ( 340.90%)
   displ. norm   :     0.3250883 α      lambda       -0.8037792E-03
   maximum displ.:     0.3046781 α      in ANC's #10, #6, #3, ...

........................................................................
.............................. CYCLE   35 ..............................
........................................................................

 iter      E             dE          RMSdq      gap      omega  full diag
   1    -20.4174435 -0.204174E+02  0.869E-02   14.06       0.0  T
   2    -20.4174463 -0.275635E-05  0.514E-02   14.07       1.0  T
   3    -20.4174470 -0.694376E-06  0.827E-03   14.07       3.5  T
   4    -20.4174471 -0.854095E-07  0.190E-03   14.07      15.2  T
   5    -20.4174471 -0.698481E-09  0.132E-04   14.07     219.5  T
   6    -20.4174471 -0.919798E-11  0.602E-05   14.07     479.4  T
     SCC iter.                  ...        0 min,  0.001 sec
     gradient                   ...        0 min,  0.000 sec
 * total energy  :   -20.2800118 Eh     change       -0.4338641E-03 Eh
   gradient norm :     0.0091448 Eh/α   predicted    -0.4443615E-03 (   2.42%)
   displ. norm   :     0.6408844 α      lambda       -0.6414298E-03
   maximum displ.:     0.5835764 α      in ANC's #10, #6, #8, ...

........................................................................
.............................. CYCLE   36 ..............................
........................................................................

 iter      E             dE          RMSdq      gap      omega  full diag
   1    -20.4123227 -0.204123E+02  0.172E-01   13.79       0.0  T
   2    -20.4123341 -0.113256E-04  0.102E-01   13.79       1.0  T
   3    -20.4123371 -0.301723E-05  0.169E-02   13.79       1.7  T
   4    -20.4123374 -0.357267E-06  0.369E-03   13.78       7.8  T
   5    -20.4123374 -0.391534E-08  0.398E-04   13.78      72.6  T
   6    -20.4123374 -0.113850E-09  0.165E-04   13.78     174.8  T
     SCC iter.                  ...        0 min,  0.001 sec
     gradient                   ...        0 min,  0.001 sec
 * total energy  :   -20.2799577 Eh     change        0.5410447E-04 Eh
   gradient norm :     0.0283275 Eh/α   predicted    -0.4524388E-03 (-936.23%)
   displ. norm   :     0.2584441 α      lambda       -0.9536406E-03
   maximum displ.:     0.2327264 α      in ANC's #10, #6, #5, ...

........................................................................
.............................. CYCLE   37 ..............................
........................................................................

 iter      E             dE          RMSdq      gap      omega  full diag
   1    -20.4166870 -0.204167E+02  0.102E-01   14.18       0.0  T
   2    -20.4166937 -0.670859E-05  0.584E-02   14.17       1.0  T
   3    -20.4166951 -0.141026E-05  0.130E-02   14.16       2.2  T
   4    -20.4166953 -0.172327E-06  0.244E-03   14.16      11.8  T
   5    -20.4166953 -0.109224E-08  0.190E-04   14.16     151.8  T
   6    -20.4166953 -0.200089E-10  0.797E-05   14.16     362.3  T
     SCC iter.                  ...        0 min,  0.002 sec
     gradient                   ...        0 min,  0.000 sec
 * total energy  :   -20.2804698 Eh     change       -0.5121208E-03 Eh
   gradient norm :     0.0080024 Eh/α   predicted    -0.5086712E-03 (  -0.67%)
   displ. norm   :     0.5836949 α      lambda       -0.3786866E-03
   maximum displ.:     0.5572550 α      in ANC's #10, #6, #8, ...

........................................................................
.............................. CYCLE   38 ..............................
........................................................................

 iter      E             dE          RMSdq      gap      omega  full diag
   1    -20.4164455 -0.204164E+02  0.953E-02   13.97       0.0  T
   2    -20.4164483 -0.281495E-05  0.571E-02   13.96       1.0  T
   3    -20.4164491 -0.791078E-06  0.816E-03   13.95       3.5  T
   4    -20.4164492 -0.899829E-07  0.179E-03   13.95      16.1  T
   5    -20.4164492 -0.693710E-09  0.152E-04   13.95     189.3  T
   6    -20.4164492 -0.129958E-10  0.691E-05   13.95     417.6  T
     SCC iter.                  ...        0 min,  0.000 sec
     gradient                   ...        0 min,  0.001 sec
 * total energy  :   -20.2806543 Eh     change       -0.1844693E-03 Eh
   gradient norm :     0.0137782 Eh/α   predicted    -0.2538531E-03 (  37.61%)
   displ. norm   :     0.6042482 α      lambda       -0.4432502E-03
   maximum displ.:     0.5615882 α      in ANC's #10, #6, #8, ...

........................................................................
.............................. CYCLE   39 ..............................
........................................................................

 iter      E             dE          RMSdq      gap      omega  full diag
   1    -20.4175575 -0.204176E+02  0.850E-02   14.11       0.0  T
   2    -20.4175588 -0.127815E-05  0.514E-02   14.11       1.0  T
   3    -20.4175593 -0.441481E-06  0.541E-03   14.10       5.3  T
   4    -20.4175593 -0.422224E-07  0.154E-03   14.10      18.8  T
   5    -20.4175593 -0.984489E-09  0.161E-04   14.10     179.2  T
   6    -20.4175593 -0.149143E-10  0.753E-05   14.10     383.3  T
     SCC iter.                  ...        0 min,  0.001 sec
     gradient                   ...        0 min,  0.000 sec
 * total energy  :   -20.2809768 Eh     change       -0.3224508E-03 Eh
   gradient norm :     0.0066669 Eh/α   predicted    -0.3025482E-03 (  -6.17%)
   displ. norm   :     0.7533563 α      lambda       -0.3969923E-03
   maximum displ.:     0.7070586 α      in ANC's #10, #6, #8, ...

........................................................................
.............................. CYCLE   40 ..............................
........................................................................

 iter      E             dE          RMSdq      gap      omega  full diag
   1    -20.4138823 -0.204139E+02  0.128E-01   14.00       0.0  T
   2    -20.4138872 -0.486776E-05  0.779E-02   14.02       1.0  T
   3    -20.4138890 -0.186975E-05  0.106E-02   14.02       2.7  T
   4    -20.4138892 -0.146998E-06  0.295E-03   14.02       9.8  T
   5    -20.4138892 -0.328671E-08  0.318E-04   14.02      90.8  T
   6    -20.4138892 -0.693703E-10  0.149E-04   14.02     193.9  T
     SCC iter.                  ...        0 min,  0.001 sec
     gradient                   ...        0 min,  0.001 sec
 * total energy  :   -20.2810329 Eh     change       -0.5614488E-04 Eh
   gradient norm :     0.0222228 Eh/α   predicted    -0.3111393E-03 ( 454.17%)
   displ. norm   :     0.3159888 α      lambda       -0.5785174E-03
   maximum displ.:     0.2934921 α      in ANC's #10, #6, #8, ...

........................................................................
.............................. CYCLE   41 ..............................
........................................................................

 iter      E             dE          RMSdq      gap      omega  full diag
   1    -20.4179697 -0.204180E+02  0.648E-02   14.20       0.0  T
   2    -20.4179720 -0.238147E-05  0.373E-02   14.18       1.0  T
   3    -20.4179726 -0.554814E-06  0.767E-03   14.17       3.8  T
   4    -20.4179727 -0.674311E-07  0.171E-03   14.18      16.9  T
   5    -20.4179727 -0.991726E-09  0.147E-04   14.18     196.2  T
   6    -20.4179727 -0.152376E-10  0.684E-05   14.18     422.1  T
     SCC iter.                  ...        0 min,  0.001 sec
     gradient                   ...        0 min,  0.001 sec
 * total energy  :   -20.2813643 Eh     change       -0.3313602E-03 Eh
   gradient norm :     0.0071108 Eh/α   predicted    -0.3181417E-03 (  -3.99%)
   displ. norm   :     0.6769759 α      lambda       -0.2801517E-03
   maximum displ.:     0.6362092 α      in ANC's #10, #6, #8, ...

........................................................................
.............................. CYCLE   42 ..............................
........................................................................

 iter      E             dE          RMSdq      gap      omega  full diag
   1    -20.4171583 -0.204172E+02  0.898E-02   14.02       0.0  T
   2    -20.4171602 -0.194545E-05  0.546E-02   14.02       1.0  T
   3    -20.4171611 -0.811887E-06  0.673E-03   14.01       4.3  T
   4    -20.4171611 -0.587662E-07  0.201E-03   14.01      14.4  T
   5    -20.4171611 -0.216010E-08  0.241E-04   14.01     119.6  T
   6    -20.4171611 -0.365823E-10  0.109E-04   14.01     264.0  T
     SCC iter.                  ...        0 min,  0.002 sec
     gradient                   ...        0 min,  0.000 sec
 * total energy  :   -20.2815206 Eh     change       -0.1562871E-03 Eh
   gradient norm :     0.0118689 Eh/α   predicted    -0.2042708E-03 (  30.70%)
   displ. norm   :     0.5793358 α      lambda       -0.3328334E-03
   maximum displ.:     0.5389043 α      in ANC's #10, #6, #8, ...
 * RMSD in coord.:     2.6893159 α      energy gain  -0.5610852E-02 Eh

generating ANC from exact Hessian ...
Using Lindh-Hessian (1995)
 Shifting diagonal of input Hessian by   1.000164958800255E-002
 Lowest  eigenvalues of input Hessian
    0.010000    0.000000    0.000000    0.000000    0.010001    0.000000
    0.000000    0.000000    0.010005    0.010007    0.010007    0.010008
    0.010009    0.010013    0.010013    0.010014    0.010428    0.010435
 Highest eigenvalues
    1.214233    1.215968    1.432100    1.436096    1.440667    1.446654
 

........................................................................
.............................. CYCLE   43 ..............................
........................................................................

 iter      E             dE          RMSdq      gap      omega  full diag
   1    -20.4179045 -0.204179E+02  0.774E-02   14.09       0.0  T
   2    -20.4179052 -0.712784E-06  0.477E-02   14.09       1.0  T
   3    -20.4179056 -0.438551E-06  0.362E-03   14.09       8.0  T
   4    -20.4179056 -0.677179E-08  0.924E-04   14.09      31.2  T
   5    -20.4179056 -0.664784E-09  0.163E-04   14.09     176.6  T
     SCC iter.                  ...        0 min,  0.002 sec
     gradient                   ...        0 min,  0.001 sec
 * total energy  :   -20.2817047 Eh     change       -0.1841793E-03 Eh
   gradient norm :     0.0110011 Eh/α   predicted     0.0000000E+00 (-100.00%)
   displ. norm   :     0.1771045 α      lambda       -0.4161658E-03
   maximum displ.:     0.1225016 α      in ANC's #7, #9, #10, ...

........................................................................
.............................. CYCLE   44 ..............................
........................................................................

 iter      E             dE          RMSdq      gap      omega  full diag
   1    -20.4173406 -0.204173E+02  0.166E-01   14.11       0.0  T
   2    -20.4173450 -0.442195E-05  0.104E-01   14.11       1.0  T
   3    -20.4173477 -0.268545E-05  0.674E-03   14.11       4.3  T
   4    -20.4173477 -0.223989E-07  0.179E-03   14.11      16.1  T
   5    -20.4173477 -0.156511E-08  0.245E-04   14.11     118.0  T
   6    -20.4173477 -0.461533E-10  0.106E-04   14.11     272.0  T
     SCC iter.                  ...        0 min,  0.001 sec
     gradient                   ...        0 min,  0.001 sec
 * total energy  :   -20.2820647 Eh     change       -0.3599365E-03 Eh
   gradient norm :     0.0074939 Eh/α   predicted    -0.2146074E-03 ( -40.38%)
   displ. norm   :     0.3220612 α      lambda       -0.5296444E-03
   maximum displ.:     0.1752139 α      in ANC's #7, #9, #10, ...

........................................................................
.............................. CYCLE   45 ..............................
........................................................................

 iter      E             dE          RMSdq      gap      omega  full diag
   1    -20.4092935 -0.204093E+02  0.284E-01   13.88       0.0  T
   2    -20.4093120 -0.184579E-04  0.175E-01   13.90       1.0  T
   3    -20.4093201 -0.813971E-05  0.179E-02   13.91       1.6  T
   4    -20.4093206 -0.421149E-06  0.466E-03   13.90       6.2  T
   5    -20.4093206 -0.562207E-08  0.553E-04   13.90      52.2  T
   6    -20.4093206 -0.189925E-09  0.252E-04   13.90     114.7  T
     SCC iter.                  ...        0 min,  0.001 sec
     gradient                   ...        0 min,  0.000 sec
 * total energy  :   -20.2819202 Eh     change        0.1444937E-03 Eh
   gradient norm :     0.0335775 Eh/α   predicted    -0.2922920E-03 (-302.29%)
   displ. norm   :     0.1465166 α      lambda       -0.1242641E-02
   maximum displ.:     0.1323219 α      in ANC's #7, #9, #8, ...

........................................................................
.............................. CYCLE   46 ..............................
........................................................................

 iter      E             dE          RMSdq      gap      omega  full diag
   1    -20.4177009 -0.204177E+02  0.159E-01   14.10       0.0  T
   2    -20.4177120 -0.110987E-04  0.948E-02   14.07       1.0  T
   3    -20.4177149 -0.288896E-05  0.167E-02   14.06       1.7  T
   4    -20.4177153 -0.338167E-06  0.325E-03   14.07       8.9  T
   5    -20.4177153 -0.668638E-09  0.225E-04   14.07     128.1  T
   6    -20.4177153 -0.204246E-10  0.663E-05   14.07     435.6  T
     SCC iter.                  ...        0 min,  0.002 sec
     gradient                   ...        0 min,  0.001 sec
 * total energy  :   -20.2823797 Eh     change       -0.4594915E-03 Eh
   gradient norm :     0.0114681 Eh/α   predicted    -0.6346550E-03 (  38.12%)
   displ. norm   :     0.0955898 α      lambda       -0.2418399E-03
   maximum displ.:     0.0490460 α      in ANC's #7, #13, #14, ...

........................................................................
.............................. CYCLE   47 ..............................
........................................................................

 iter      E             dE          RMSdq      gap      omega  full diag
   1    -20.4197713 -0.204198E+02  0.777E-02   14.18       0.0  T
   2    -20.4197731 -0.179500E-05  0.470E-02   14.18       1.0  T
   3    -20.4197736 -0.525561E-06  0.643E-03   14.19       4.5  T
   4    -20.4197737 -0.578182E-07  0.141E-03   14.19      20.5  T
   5    -20.4197737 -0.372491E-09  0.118E-04   14.19     243.8  T
   6    -20.4197737 -0.628120E-11  0.542E-05   14.19     532.1  T
     SCC iter.                  ...        0 min,  0.002 sec
     gradient                   ...        0 min,  0.001 sec
 * total energy  :   -20.2825140 Eh     change       -0.1343315E-03 Eh
   gradient norm :     0.0056036 Eh/α   predicted    -0.1220248E-03 (  -9.16%)
   displ. norm   :     0.3024625 α      lambda       -0.4343117E-03
   maximum displ.:     0.1749429 α      in ANC's #13, #14, #9, ...

........................................................................
.............................. CYCLE   48 ..............................
........................................................................

 iter      E             dE          RMSdq      gap      omega  full diag
   1    -20.4154450 -0.204154E+02  0.199E-01   13.91       0.0  T
   2    -20.4154510 -0.601763E-05  0.123E-01   13.91       1.0  T
   3    -20.4154546 -0.357056E-05  0.102E-02   13.91       2.8  T
   4    -20.4154547 -0.731912E-07  0.290E-03   13.91      10.0  T
   5    -20.4154547 -0.550968E-08  0.509E-04   13.91      56.7  T
   6    -20.4154547 -0.152632E-09  0.224E-04   13.91     129.1  T
     SCC iter.                  ...        0 min,  0.002 sec
     gradient                   ...        0 min,  0.000 sec
 * total energy  :   -20.2827989 Eh     change       -0.2849033E-03 Eh
   gradient norm :     0.0161984 Eh/α   predicted    -0.2370235E-03 ( -16.81%)
   displ. norm   :     0.2356603 α      lambda       -0.4125415E-03
   maximum displ.:     0.1088613 α      in ANC's #14, #13, #8, ...

........................................................................
.............................. CYCLE   49 ..............................
........................................................................

 iter      E             dE          RMSdq      gap      omega  full diag
   1    -20.4129032 -0.204129E+02  0.153E-01   13.84       0.0  T
   2    -20.4129082 -0.496764E-05  0.948E-02   13.83       1.0  T
   3    -20.4129106 -0.246793E-05  0.997E-03   13.82       2.9  T
   4    -20.4129107 -0.109142E-06  0.312E-03   13.83       9.3  T
   5    -20.4129107 -0.465012E-08  0.434E-04   13.83      66.6  T
   6    -20.4129107 -0.106080E-09  0.192E-04   13.83     150.2  T
     SCC iter.                  ...        0 min,  0.001 sec
     gradient                   ...        0 min,  0.000 sec
 * total energy  :   -20.2829545 Eh     change       -0.1556378E-03 Eh
   gradient norm :     0.0219169 Eh/α   predicted    -0.2177262E-03 (  39.89%)
   displ. norm   :     0.2077448 α      lambda       -0.8163999E-03
   maximum displ.:     0.1032631 α      in ANC's #17, #8, #13, ...

........................................................................
.............................. CYCLE   50 ..............................
........................................................................

 iter      E             dE          RMSdq      gap      omega  full diag
   1    -20.4185054 -0.204185E+02  0.165E-01   13.71       0.0  T
   2    -20.4185180 -0.126267E-04  0.981E-02   13.70       1.0  T
   3    -20.4185216 -0.351965E-05  0.181E-02   13.69       1.6  T
   4    -20.4185219 -0.396856E-06  0.406E-03   13.70       7.1  T
   5    -20.4185220 -0.585765E-08  0.473E-04   13.69      61.1  T
   6    -20.4185220 -0.134708E-09  0.205E-04   13.69     140.7  T
     SCC iter.                  ...        0 min,  0.002 sec
     gradient                   ...        0 min,  0.000 sec
 * total energy  :   -20.2828769 Eh     change        0.7765573E-04 Eh
   gradient norm :     0.0323146 Eh/α   predicted    -0.4258155E-03 (-648.34%)
   displ. norm   :     0.1900997 α      lambda       -0.1481243E-02
   maximum displ.:     0.1120258 α      in ANC's #16, #13, #8, ...

........................................................................
.............................. CYCLE   51 ..............................
........................................................................

 iter      E             dE          RMSdq      gap      omega  full diag
   1    -20.4289993 -0.204290E+02  0.177E-01   14.16       0.0  T
   2    -20.4290140 -0.146783E-04  0.104E-01   14.15       1.0  T
   3    -20.4290179 -0.388878E-05  0.193E-02   14.14       1.5  T
   4    -20.4290184 -0.446874E-06  0.439E-03   14.15       6.6  T
   5    -20.4290184 -0.626885E-08  0.449E-04   14.15      64.3  T
   6    -20.4290184 -0.127464E-09  0.191E-04   14.15     151.0  T
     SCC iter.                  ...        0 min,  0.002 sec
     gradient                   ...        0 min,  0.001 sec
 * total energy  :   -20.2828429 Eh     change        0.3400427E-04 Eh
   gradient norm :     0.0311316 Eh/α   predicted    -0.7673860E-03 (*******%)
   displ. norm   :     0.3209972 α      lambda       -0.1793597E-02
   maximum displ.:     0.1951665 α      in ANC's #13, #14, #10, ...

........................................................................
.............................. CYCLE   52 ..............................
........................................................................

 iter      E             dE          RMSdq      gap      omega  full diag
   1    -20.4120639 -0.204121E+02  0.231E-01   13.77       0.0  T
   2    -20.4120812 -0.173152E-04  0.137E-01   13.77       1.0  T
   3    -20.4120862 -0.499118E-05  0.206E-02   13.77       1.4  T
   4    -20.4120867 -0.563008E-06  0.541E-03   13.77       5.3  T
   5    -20.4120867 -0.112560E-07  0.622E-04   13.77      46.4  T
   6    -20.4120867 -0.235477E-09  0.274E-04   13.77     105.2  T
     SCC iter.                  ...        0 min,  0.002 sec
     gradient                   ...        0 min,  0.001 sec
 * total energy  :   -20.2829875 Eh     change       -0.1445864E-03 Eh
   gradient norm :     0.0349777 Eh/α   predicted    -0.9892050E-03 ( 584.16%)
   displ. norm   :     0.2251254 α      lambda       -0.1784332E-02
   maximum displ.:     0.1580674 α      in ANC's #16, #10, #14, ...

........................................................................
.............................. CYCLE   53 ..............................
........................................................................

 iter      E             dE          RMSdq      gap      omega  full diag
   1    -20.4176459 -0.204176E+02  0.186E-01   13.69       0.0  T
   2    -20.4176605 -0.145615E-04  0.111E-01   13.68       1.0  T
   3    -20.4176657 -0.517645E-05  0.190E-02   13.67       1.5  T
   4    -20.4176661 -0.450172E-06  0.549E-03   13.68       5.3  T
   5    -20.4176661 -0.126342E-07  0.607E-04   13.67      47.6  T
   6    -20.4176661 -0.270742E-09  0.266E-04   13.67     108.6  T
     SCC iter.                  ...        0 min,  0.002 sec
     gradient                   ...        0 min,  0.001 sec
 * total energy  :   -20.2829662 Eh     change        0.2124453E-04 Eh
   gradient norm :     0.0337619 Eh/α   predicted    -0.9373847E-03 (*******%)
   displ. norm   :     0.2610989 α      lambda       -0.2192486E-02
   maximum displ.:     0.1676115 α      in ANC's #13, #17, #8, ...

........................................................................
.............................. CYCLE   54 ..............................
........................................................................

 iter      E             dE          RMSdq      gap      omega  full diag
   1    -20.4278486 -0.204278E+02  0.245E-01   14.07       0.0  T
   2    -20.4278736 -0.250520E-04  0.144E-01   14.07       1.0  T
   3    -20.4278793 -0.573461E-05  0.249E-02   14.07       1.2  T
   4    -20.4278801 -0.752255E-06  0.522E-03   14.07       5.5  T
   5    -20.4278801 -0.498774E-08  0.556E-04   14.07      51.9  T
   6    -20.4278801 -0.125258E-09  0.163E-04   14.07     177.0  T
     SCC iter.                  ...        0 min,  0.002 sec
     gradient                   ...        0 min,  0.000 sec
 * total energy  :   -20.2824222 Eh     change        0.5440161E-03 Eh
   gradient norm :     0.0467420 Eh/α   predicted    -0.1170973E-02 (-315.25%)
   displ. norm   :     0.2329379 α      lambda       -0.2431495E-02
   maximum displ.:     0.1634329 α      in ANC's #16, #13, #9, ...

........................................................................
.............................. CYCLE   55 ..............................
........................................................................

 iter      E             dE          RMSdq      gap      omega  full diag
   1    -20.4207142 -0.204207E+02  0.189E-01   14.05       0.0  T
   2    -20.4207288 -0.146590E-04  0.113E-01   14.05       1.0  T
   3    -20.4207336 -0.476303E-05  0.193E-02   14.05       1.5  T
   4    -20.4207341 -0.462704E-06  0.514E-03   14.05       5.6  T
   5    -20.4207341 -0.114561E-07  0.576E-04   14.05      50.1  T
   6    -20.4207341 -0.226418E-09  0.256E-04   14.05     112.8  T
     SCC iter.                  ...        0 min,  0.001 sec
     gradient                   ...        0 min,  0.001 sec
 * total energy  :   -20.2832877 Eh     change       -0.8654941E-03 Eh
   gradient norm :     0.0294495 Eh/α   predicted    -0.1281714E-02 (  48.09%)
   displ. norm   :     0.2471775 α      lambda       -0.1659350E-02
   maximum displ.:     0.1501254 α      in ANC's #17, #13, #16, ...

........................................................................
.............................. CYCLE   56 ..............................
........................................................................

 iter      E             dE          RMSdq      gap      omega  full diag
   1    -20.4148389 -0.204148E+02  0.183E-01   13.56       0.0  T
   2    -20.4148483 -0.942267E-05  0.108E-01   13.54       1.0  T
   3    -20.4148513 -0.300502E-05  0.149E-02   13.53       1.9  T
   4    -20.4148516 -0.306154E-06  0.453E-03   13.54       6.4  T
   5    -20.4148516 -0.103703E-07  0.493E-04   13.54      58.6  T
   6    -20.4148516 -0.184333E-09  0.212E-04   13.54     136.1  T
     SCC iter.                  ...        0 min,  0.001 sec
     gradient                   ...        0 min,  0.001 sec
 * total energy  :   -20.2830133 Eh     change        0.2743938E-03 Eh
   gradient norm :     0.0341501 Eh/α   predicted    -0.8803693E-03 (-420.84%)
   displ. norm   :     0.1490822 α      lambda       -0.1487684E-02
   maximum displ.:     0.0881321 α      in ANC's #17, #7, #13, ...

........................................................................
.............................. CYCLE   57 ..............................
........................................................................

 iter      E             dE          RMSdq      gap      omega  full diag
   1    -20.4192126 -0.204192E+02  0.126E-01   14.02       0.0  T
   2    -20.4192190 -0.640232E-05  0.734E-02   14.05       1.0  T
   3    -20.4192205 -0.150346E-05  0.124E-02   14.06       2.3  T
   4    -20.4192207 -0.193392E-06  0.296E-03   14.05       9.8  T
   5    -20.4192207 -0.247290E-08  0.244E-04   14.05     118.5  T
   6    -20.4192207 -0.351932E-10  0.106E-04   14.05     271.8  T
     SCC iter.                  ...        0 min,  0.002 sec
     gradient                   ...        0 min,  0.000 sec
 * total energy  :   -20.2837373 Eh     change       -0.7239841E-03 Eh
   gradient norm :     0.0104688 Eh/α   predicted    -0.7603741E-03 (   5.03%)
   displ. norm   :     0.1929921 α      lambda       -0.4661990E-03
   maximum displ.:     0.0849307 α      in ANC's #17, #16, #9, ...

........................................................................
.............................. CYCLE   58 ..............................
........................................................................

 iter      E             dE          RMSdq      gap      omega  full diag
   1    -20.4209970 -0.204210E+02  0.122E-01   14.03       0.0  T
   2    -20.4210015 -0.448473E-05  0.743E-02   14.01       1.0  T
   3    -20.4210034 -0.188640E-05  0.104E-02   14.00       2.8  T
   4    -20.4210035 -0.130562E-06  0.316E-03   14.01       9.1  T
   5    -20.4210035 -0.475185E-08  0.367E-04   14.01      78.6  T
   6    -20.4210035 -0.904841E-10  0.165E-04   14.01     175.5  T
     SCC iter.                  ...        0 min,  0.001 sec
     gradient                   ...        0 min,  0.001 sec
 * total energy  :   -20.2837334 Eh     change        0.3849644E-05 Eh
   gradient norm :     0.0226994 Eh/α   predicted    -0.2417812E-03 (*******%)
   displ. norm   :     0.1697324 α      lambda       -0.5158116E-03
   maximum displ.:     0.0911892 α      in ANC's #13, #7, #3, ...

........................................................................
.............................. CYCLE   59 ..............................
........................................................................

 iter      E             dE          RMSdq      gap      omega  full diag
   1    -20.4175533 -0.204176E+02  0.101E-01   13.90       0.0  T
   2    -20.4175558 -0.249471E-05  0.612E-02   13.91       1.0  T
   3    -20.4175565 -0.724545E-06  0.752E-03   13.92       3.8  T
   4    -20.4175566 -0.814338E-07  0.175E-03   13.92      16.5  T
   5    -20.4175566 -0.752607E-09  0.166E-04   13.92     174.1  T
   6    -20.4175566 -0.163354E-10  0.756E-05   13.92     381.9  T
     SCC iter.                  ...        0 min,  0.002 sec
     gradient                   ...        0 min,  0.000 sec
 * total energy  :   -20.2840171 Eh     change       -0.2836298E-03 Eh
   gradient norm :     0.0140718 Eh/α   predicted    -0.2653358E-03 (  -6.45%)
   displ. norm   :     0.1142054 α      lambda       -0.3378731E-03
   maximum displ.:     0.0556072 α      in ANC's #5, #6, #3, ...

........................................................................
.............................. CYCLE   60 ..............................
........................................................................

 iter      E             dE          RMSdq      gap      omega  full diag
   1    -20.4216518 -0.204217E+02  0.540E-02   14.08       0.0  T
   2    -20.4216533 -0.147956E-05  0.311E-02   14.08       1.0  T
   3    -20.4216537 -0.396726E-06  0.593E-03   14.07       4.9  T
   4    -20.4216537 -0.451608E-07  0.161E-03   14.08      17.9  T
   5    -20.4216537 -0.138481E-08  0.164E-04   14.08     175.9  T
   6    -20.4216537 -0.207621E-10  0.719E-05   14.08     401.4  T
     SCC iter.                  ...        0 min,  0.001 sec
     gradient                   ...        0 min,  0.000 sec
 * total energy  :   -20.2841238 Eh     change       -0.1066944E-03 Eh
   gradient norm :     0.0096202 Eh/α   predicted    -0.1711396E-03 (  60.40%)
   displ. norm   :     0.3072396 α      lambda       -0.3471420E-03
   maximum displ.:     0.1251232 α      in ANC's #3, #5, #13, ...

........................................................................
.............................. CYCLE   61 ..............................
........................................................................

 iter      E             dE          RMSdq      gap      omega  full diag
   1    -20.4175288 -0.204175E+02  0.143E-01   13.93       0.0  T
   2    -20.4175328 -0.401389E-05  0.888E-02   13.93       1.0  T
   3    -20.4175349 -0.207074E-05  0.874E-03   13.93       3.3  T
   4    -20.4175350 -0.798460E-07  0.266E-03   13.93      10.9  T
   5    -20.4175350 -0.345846E-08  0.380E-04   13.93      75.9  T
   6    -20.4175350 -0.798046E-10  0.173E-04   13.93     167.0  T
     SCC iter.                  ...        0 min,  0.002 sec
     gradient                   ...        0 min,  0.000 sec
 * total energy  :   -20.2843455 Eh     change       -0.2217174E-03 Eh
   gradient norm :     0.0140088 Eh/α   predicted    -0.1899541E-03 ( -14.33%)
   displ. norm   :     0.3951585 α      lambda       -0.4760096E-03
   maximum displ.:     0.1578958 α      in ANC's #3, #5, #13, ...

........................................................................
.............................. CYCLE   62 ..............................
........................................................................

 iter      E             dE          RMSdq      gap      omega  full diag
   1    -20.4147443 -0.204147E+02  0.168E-01   13.65       0.0  T
   2    -20.4147507 -0.639800E-05  0.104E-01   13.65       1.0  T
   3    -20.4147544 -0.372469E-05  0.116E-02   13.65       2.5  T
   4    -20.4147545 -0.110018E-06  0.352E-03   13.65       8.2  T
   5    -20.4147545 -0.844158E-08  0.575E-04   13.65      50.2  T
   6    -20.4147545 -0.220926E-09  0.232E-04   13.65     124.4  T
     SCC iter.                  ...        0 min,  0.001 sec
     gradient                   ...        0 min,  0.002 sec
 * total energy  :   -20.2843693 Eh     change       -0.2382151E-04 Eh
   gradient norm :     0.0263470 Eh/α   predicted    -0.2751645E-03 (1055.11%)
   displ. norm   :     0.1262171 α      lambda       -0.7750767E-03
   maximum displ.:     0.0747312 α      in ANC's #15, #5, #6, ...

........................................................................
.............................. CYCLE   63 ..............................
........................................................................

 iter      E             dE          RMSdq      gap      omega  full diag
   1    -20.4230039 -0.204230E+02  0.961E-02   14.04       0.0  T
   2    -20.4230085 -0.463083E-05  0.559E-02   14.03       1.0  T
   3    -20.4230099 -0.133709E-05  0.106E-02   14.03       2.7  T
   4    -20.4230100 -0.143299E-06  0.286E-03   14.03      10.1  T
   5    -20.4230100 -0.412174E-08  0.288E-04   14.03     100.1  T
   6    -20.4230100 -0.674483E-10  0.128E-04   14.03     225.1  T
     SCC iter.                  ...        0 min,  0.002 sec
     gradient                   ...        0 min,  0.000 sec
 * total energy  :   -20.2844927 Eh     change       -0.1234247E-03 Eh
   gradient norm :     0.0239968 Eh/α   predicted    -0.3937127E-03 ( 218.99%)
   displ. norm   :     0.1787819 α      lambda       -0.1031447E-02
   maximum displ.:     0.0984797 α      in ANC's #15, #12, #16, ...

........................................................................
.............................. CYCLE   64 ..............................
........................................................................

 iter      E             dE          RMSdq      gap      omega  full diag
   1    -20.4232572 -0.204233E+02  0.127E-01   13.86       0.0  T
   2    -20.4232640 -0.686530E-05  0.749E-02   13.85       1.0  T
   3    -20.4232664 -0.241527E-05  0.130E-02   13.83       2.2  T
   4    -20.4232667 -0.220364E-06  0.386E-03   13.84       7.5  T
   5    -20.4232667 -0.913582E-08  0.453E-04   13.84      63.7  T
   6    -20.4232667 -0.181252E-09  0.188E-04   13.84     153.8  T
     SCC iter.                  ...        0 min,  0.002 sec
     gradient                   ...        0 min,  0.001 sec
 * total energy  :   -20.2843658 Eh     change        0.1269085E-03 Eh
   gradient norm :     0.0287923 Eh/α   predicted    -0.5322081E-03 (-519.36%)
   displ. norm   :     0.2213226 α      lambda       -0.1106539E-02
   maximum displ.:     0.1225202 α      in ANC's #13, #5, #3, ...

........................................................................
.............................. CYCLE   65 ..............................
........................................................................

 iter      E             dE          RMSdq      gap      omega  full diag
   1    -20.4197147 -0.204197E+02  0.134E-01   13.80       0.0  T
   2    -20.4197220 -0.732292E-05  0.794E-02   13.81       1.0  T
   3    -20.4197240 -0.192247E-05  0.135E-02   13.82       2.1  T
   4    -20.4197242 -0.230559E-06  0.309E-03   13.81       9.3  T
   5    -20.4197242 -0.350733E-08  0.333E-04   13.81      86.7  T
   6    -20.4197242 -0.614975E-10  0.152E-04   13.81     190.4  T
     SCC iter.                  ...        0 min,  0.001 sec
     gradient                   ...        0 min,  0.000 sec
 * total energy  :   -20.2847701 Eh     change       -0.4042918E-03 Eh
   gradient norm :     0.0176897 Eh/α   predicted    -0.5803700E-03 (  43.55%)
   displ. norm   :     0.2272020 α      lambda       -0.7439111E-03
   maximum displ.:     0.0905889 α      in ANC's #16, #5, #6, ...

........................................................................
.............................. CYCLE   66 ..............................
........................................................................

 iter      E             dE          RMSdq      gap      omega  full diag
   1    -20.4180696 -0.204181E+02  0.133E-01   13.80       0.0  T
   2    -20.4180757 -0.611416E-05  0.800E-02   13.80       1.0  T
   3    -20.4180778 -0.211129E-05  0.122E-02   13.80       2.4  T
   4    -20.4180780 -0.191357E-06  0.344E-03   13.80       8.4  T
   5    -20.4180780 -0.533897E-08  0.380E-04   13.80      76.0  T
   6    -20.4180780 -0.109281E-09  0.169E-04   13.80     171.2  T
     SCC iter.                  ...        0 min,  0.002 sec
     gradient                   ...        0 min,  0.001 sec
 * total energy  :   -20.2846582 Eh     change        0.1118815E-03 Eh
   gradient norm :     0.0278421 Eh/α   predicted    -0.3911554E-03 (-449.62%)
   displ. norm   :     0.1157165 α      lambda       -0.8699845E-03
   maximum displ.:     0.0487247 α      in ANC's #10, #12, #5, ...
 * RMSD in coord.:     0.8022434 α      energy gain  -0.3137676E-02 Eh

generating ANC from exact Hessian ...
Using Lindh-Hessian (1995)
 Shifting diagonal of input Hessian by   1.000293129594707E-002
 Lowest  eigenvalues of input Hessian
    0.010000    0.000000    0.000000    0.010002    0.000000    0.000000
    0.000000    0.000000    0.010005    0.010009    0.010010    0.010011
    0.010012    0.010014    0.010017    0.010024    0.010407    0.010423
 Highest eigenvalues
    1.220275    1.233069    1.435048    1.440499    1.443112    1.445659
 

........................................................................
.............................. CYCLE   67 ..............................
........................................................................

 iter      E             dE          RMSdq      gap      omega  full diag
   1    -20.4233024 -0.204233E+02  0.875E-02   14.01       0.0  T
   2    -20.4233052 -0.281941E-05  0.518E-02   14.00       1.0  T
   3    -20.4233061 -0.830448E-06  0.823E-03   13.99       3.5  T
   4    -20.4233062 -0.892523E-07  0.218E-03   13.99      13.2  T
   5    -20.4233062 -0.216166E-08  0.226E-04   13.99     127.6  T
   6    -20.4233062 -0.391189E-10  0.102E-04   13.99     282.1  T
     SCC iter.                  ...        0 min,  0.001 sec
     gradient                   ...        0 min,  0.001 sec
 * total energy  :   -20.2850384 Eh     change       -0.3801306E-03 Eh
   gradient norm :     0.0102289 Eh/α   predicted     0.0000000E+00 (-100.00%)
   displ. norm   :     0.0862721 α      lambda       -0.1648222E-03
   maximum displ.:     0.0466076 α      in ANC's #12, #9, #10, ...

........................................................................
.............................. CYCLE   68 ..............................
........................................................................

 iter      E             dE          RMSdq      gap      omega  full diag
   1    -20.4223272 -0.204223E+02  0.586E-02   14.01       0.0  T
   2    -20.4223276 -0.393135E-06  0.364E-02   14.01       1.0  T
   3    -20.4223279 -0.232567E-06  0.237E-03   14.01      12.2  T
   4    -20.4223279 -0.313767E-08  0.666E-04   14.01      43.4  T
   5    -20.4223279 -0.218133E-09  0.912E-05   14.01     316.7  T
     SCC iter.                  ...        0 min,  0.001 sec
     gradient                   ...        0 min,  0.000 sec
 * total energy  :   -20.2851664 Eh     change       -0.1280420E-03 Eh
   gradient norm :     0.0028849 Eh/α   predicted    -0.8302397E-04 ( -35.16%)
   displ. norm   :     0.1834329 α      lambda       -0.1729015E-03
   maximum displ.:     0.1015558 α      in ANC's #12, #10, #9, ...

........................................................................
.............................. CYCLE   69 ..............................
........................................................................

 iter      E             dE          RMSdq      gap      omega  full diag
   1    -20.4202288 -0.204202E+02  0.110E-01   13.90       0.0  T
   2    -20.4202303 -0.147822E-05  0.683E-02   13.90       1.0  T
   3    -20.4202312 -0.888963E-06  0.494E-03   13.90       5.8  T
   4    -20.4202312 -0.154259E-07  0.138E-03   13.90      20.9  T
   5    -20.4202312 -0.125468E-08  0.238E-04   13.90     121.5  T
   6    -20.4202312 -0.377725E-10  0.105E-04   13.90     276.1  T
     SCC iter.                  ...        0 min,  0.001 sec
     gradient                   ...        0 min,  0.000 sec
 * total energy  :   -20.2852813 Eh     change       -0.1148504E-03 Eh
   gradient norm :     0.0078003 Eh/α   predicted    -0.8935996E-04 ( -22.19%)
   displ. norm   :     0.1772999 α      lambda       -0.1245370E-03
   maximum displ.:     0.0828164 α      in ANC's #12, #9, #5, ...

........................................................................
.............................. CYCLE   70 ..............................
........................................................................

 iter      E             dE          RMSdq      gap      omega  full diag
   1    -20.4194471 -0.204194E+02  0.780E-02   13.84       0.0  T
   2    -20.4194478 -0.697002E-06  0.480E-02   13.84       1.0  T
   3    -20.4194482 -0.443841E-06  0.385E-03   13.84       7.5  T
   4    -20.4194483 -0.943684E-08  0.930E-04   13.84      31.0  T
   5    -20.4194483 -0.800124E-09  0.215E-04   13.84     134.0  T
     SCC iter.                  ...        0 min,  0.001 sec
     gradient                   ...        0 min,  0.001 sec
 * total energy  :   -20.2853858 Eh     change       -0.1045382E-03 Eh
   gradient norm :     0.0102751 Eh/α   predicted    -0.6422553E-04 ( -38.56%)
   displ. norm   :     0.4155560 α      lambda       -0.3324495E-03
   maximum displ.:     0.1941479 α      in ANC's #5, #10, #9, ...

........................................................................
.............................. CYCLE   71 ..............................
........................................................................

 iter      E             dE          RMSdq      gap      omega  full diag
   1    -20.4180594 -0.204181E+02  0.158E-01   13.78       0.0  T
   2    -20.4180624 -0.302098E-05  0.973E-02   13.79       1.0  T
   3    -20.4180642 -0.186498E-05  0.815E-03   13.79       3.5  T
   4    -20.4180643 -0.484518E-07  0.223E-03   13.79      12.9  T
   5    -20.4180643 -0.429406E-08  0.443E-04   13.79      65.2  T
   6    -20.4180643 -0.133333E-09  0.171E-04   13.79     169.3  T
     SCC iter.                  ...        0 min,  0.001 sec
     gradient                   ...        0 min,  0.001 sec
 * total energy  :   -20.2856281 Eh     change       -0.2423461E-03 Eh
   gradient norm :     0.0134430 Eh/α   predicted    -0.1949416E-03 ( -19.56%)
   displ. norm   :     0.3594786 α      lambda       -0.4103208E-03
   maximum displ.:     0.2006989 α      in ANC's #5, #10, #9, ...

........................................................................
.............................. CYCLE   72 ..............................
........................................................................

 iter      E             dE          RMSdq      gap      omega  full diag
   1    -20.4210341 -0.204210E+02  0.104E-01   13.92       0.0  T
   2    -20.4210359 -0.173843E-05  0.630E-02   13.92       1.0  T
   3    -20.4210366 -0.758173E-06  0.633E-03   13.92       4.6  T
   4    -20.4210367 -0.519428E-07  0.204E-03   13.92      14.1  T
   5    -20.4210367 -0.246698E-08  0.265E-04   13.92     109.0  T
   6    -20.4210367 -0.431726E-10  0.113E-04   13.92     255.2  T
     SCC iter.                  ...        0 min,  0.002 sec
     gradient                   ...        0 min,  0.000 sec
 * total energy  :   -20.2859523 Eh     change       -0.3241317E-03 Eh
   gradient norm :     0.0073300 Eh/α   predicted    -0.2316625E-03 ( -28.53%)
   displ. norm   :     0.6984267 α      lambda       -0.5892794E-03
   maximum displ.:     0.3500677 α      in ANC's #5, #10, #9, ...

........................................................................
.............................. CYCLE   73 ..............................
........................................................................

 iter      E             dE          RMSdq      gap      omega  full diag
   1    -20.4177434 -0.204177E+02  0.236E-01   13.74       0.0  T
   2    -20.4177521 -0.869287E-05  0.145E-01   13.73       1.0  T
   3    -20.4177571 -0.498109E-05  0.136E-02   13.73       2.1  T
   4    -20.4177572 -0.158655E-06  0.418E-03   13.74       6.9  T
   5    -20.4177573 -0.122914E-07  0.682E-04   13.73      42.3  T
   6    -20.4177573 -0.317215E-09  0.283E-04   13.73     101.9  T
     SCC iter.                  ...        0 min,  0.001 sec
     gradient                   ...        0 min,  0.001 sec
 * total energy  :   -20.2861018 Eh     change       -0.1495688E-03 Eh
   gradient norm :     0.0264767 Eh/α   predicted    -0.4383573E-03 ( 193.08%)
   displ. norm   :     0.2936206 α      lambda       -0.1135182E-02
   maximum displ.:     0.1900704 α      in ANC's #5, #7, #9, ...

........................................................................
.............................. CYCLE   74 ..............................
........................................................................

 iter      E             dE          RMSdq      gap      omega  full diag
   1    -20.4269133 -0.204269E+02  0.122E-01   13.75       0.0  T
   2    -20.4269191 -0.586691E-05  0.720E-02   13.74       1.0  T
   3    -20.4269208 -0.168844E-05  0.121E-02   13.73       2.4  T
   4    -20.4269210 -0.182078E-06  0.304E-03   13.73       9.5  T
   5    -20.4269210 -0.339209E-08  0.281E-04   13.73     102.6  T
   6    -20.4269210 -0.537277E-10  0.127E-04   13.73     227.3  T
     SCC iter.                  ...        0 min,  0.002 sec
     gradient                   ...        0 min,  0.000 sec
 * total energy  :   -20.2863961 Eh     change       -0.2942738E-03 Eh
   gradient norm :     0.0216782 Eh/α   predicted    -0.6165184E-03 ( 109.50%)
   displ. norm   :     0.3159261 α      lambda       -0.9745592E-03
   maximum displ.:     0.2081559 α      in ANC's #5, #10, #12, ...

........................................................................
.............................. CYCLE   75 ..............................
........................................................................

 iter      E             dE          RMSdq      gap      omega  full diag
   1    -20.4260041 -0.204260E+02  0.169E-01   13.73       0.0  T
   2    -20.4260109 -0.677511E-05  0.102E-01   13.73       1.0  T
   3    -20.4260130 -0.218977E-05  0.125E-02   13.74       2.3  T
   4    -20.4260133 -0.215809E-06  0.305E-03   13.74       9.5  T
   5    -20.4260133 -0.225689E-08  0.283E-04   13.74     102.2  T
   6    -20.4260133 -0.366995E-10  0.120E-04   13.74     240.9  T
     SCC iter.                  ...        0 min,  0.001 sec
     gradient                   ...        0 min,  0.001 sec
 * total energy  :   -20.2865294 Eh     change       -0.1333100E-03 Eh
   gradient norm :     0.0236319 Eh/α   predicted    -0.5359135E-03 ( 302.01%)
   displ. norm   :     0.3827272 α      lambda       -0.1022928E-02
   maximum displ.:     0.1947974 α      in ANC's #9, #10, #5, ...

........................................................................
.............................. CYCLE   76 ..............................
........................................................................

 iter      E             dE          RMSdq      gap      omega  full diag
   1    -20.4205603 -0.204206E+02  0.155E-01   13.81       0.0  T
   2    -20.4205659 -0.562550E-05  0.939E-02   13.82       1.0  T
   3    -20.4205680 -0.215055E-05  0.116E-02   13.82       2.5  T
   4    -20.4205682 -0.172835E-06  0.334E-03   13.82       8.6  T
   5    -20.4205682 -0.513272E-08  0.385E-04   13.82      75.0  T
   6    -20.4205682 -0.961364E-10  0.176E-04   13.82     163.7  T
     SCC iter.                  ...        0 min,  0.002 sec
     gradient                   ...        0 min,  0.001 sec
 * total energy  :   -20.2869321 Eh     change       -0.4026688E-03 Eh
   gradient norm :     0.0187400 Eh/α   predicted    -0.5863854E-03 (  45.62%)
   displ. norm   :     0.4820606 α      lambda       -0.1081089E-02
   maximum displ.:     0.2650235 α      in ANC's #9, #5, #7, ...

........................................................................
.............................. CYCLE   77 ..............................
........................................................................

 iter      E             dE          RMSdq      gap      omega  full diag
   1    -20.4167275 -0.204167E+02  0.229E-01   13.04       0.0  T
   2    -20.4167478 -0.203880E-04  0.137E-01   13.02       1.0  T
   3    -20.4167543 -0.645918E-05  0.231E-02   13.01       1.2  T
   4    -20.4167550 -0.658788E-06  0.608E-03   13.02       4.8  T
   5    -20.4167550 -0.146102E-07  0.731E-04   13.02      39.5  T
   6    -20.4167550 -0.403066E-09  0.301E-04   13.02      95.8  T
     SCC iter.                  ...        0 min,  0.002 sec
     gradient                   ...        0 min,  0.001 sec
 * total energy  :   -20.2861258 Eh     change        0.8062656E-03 Eh
   gradient norm :     0.0450435 Eh/α   predicted    -0.6661615E-03 (-182.62%)
   displ. norm   :     0.2207501 α      lambda       -0.3100558E-02
   maximum displ.:     0.1242103 α      in ANC's #5, #13, #16, ...

........................................................................
.............................. CYCLE   78 ..............................
........................................................................

 iter      E             dE          RMSdq      gap      omega  full diag
   1    -20.4307684 -0.204308E+02  0.216E-01   14.04       0.0  T
   2    -20.4307854 -0.170044E-04  0.130E-01   14.03       1.0  T
   3    -20.4307909 -0.543358E-05  0.209E-02   14.02       1.4  T
   4    -20.4307914 -0.534637E-06  0.517E-03   14.02       5.6  T
   5    -20.4307914 -0.850839E-08  0.533E-04   14.02      54.2  T
   6    -20.4307914 -0.167745E-09  0.229E-04   14.02     126.3  T
     SCC iter.                  ...        0 min,  0.002 sec
     gradient                   ...        0 min,  0.000 sec
 * total energy  :   -20.2869748 Eh     change       -0.8490030E-03 Eh
   gradient norm :     0.0306346 Eh/α   predicted    -0.1625823E-02 (  91.50%)
   displ. norm   :     0.4041405 α      lambda       -0.1949011E-02
   maximum displ.:     0.2212733 α      in ANC's #14, #5, #6, ...

........................................................................
.............................. CYCLE   79 ..............................
........................................................................

 iter      E             dE          RMSdq      gap      omega  full diag
   1    -20.4149978 -0.204150E+02  0.271E-01   13.49       0.0  T
   2    -20.4150192 -0.213741E-04  0.161E-01   13.52       1.0  T
   3    -20.4150242 -0.500279E-05  0.226E-02   13.53       1.3  T
   4    -20.4150249 -0.674878E-06  0.509E-03   13.52       5.7  T
   5    -20.4150249 -0.331211E-08  0.457E-04   13.52      63.2  T
   6    -20.4150249 -0.234941E-09  0.145E-04   13.52     199.5  T
     SCC iter.                  ...        0 min,  0.001 sec
     gradient                   ...        0 min,  0.001 sec
 * total energy  :   -20.2864636 Eh     change        0.5112424E-03 Eh
   gradient norm :     0.0432872 Eh/α   predicted    -0.1133666E-02 (-321.75%)
   displ. norm   :     0.2490509 α      lambda       -0.3230742E-02
   maximum displ.:     0.1307931 α      in ANC's #6, #14, #9, ...

........................................................................
.............................. CYCLE   80 ..............................
........................................................................

 iter      E             dE          RMSdq      gap      omega  full diag
   1    -20.4268907 -0.204269E+02  0.210E-01   14.06       0.0  T
   2    -20.4269025 -0.117879E-04  0.127E-01   14.04       1.0  T
   3    -20.4269064 -0.388236E-05  0.166E-02   14.02       1.7  T
   4    -20.4269067 -0.364287E-06  0.439E-03   14.03       6.6  T
   5    -20.4269067 -0.370719E-08  0.358E-04   14.03      80.7  T
   6    -20.4269067 -0.667910E-10  0.151E-04   14.03     191.4  T
     SCC iter.                  ...        0 min,  0.001 sec
     gradient                   ...        0 min,  0.001 sec
 * total energy  :   -20.2876572 Eh     change       -0.1193644E-02 Eh
   gradient norm :     0.0128099 Eh/α   predicted    -0.1715567E-02 (  43.73%)
   displ. norm   :     0.6011350 α      lambda       -0.9906116E-03
   maximum displ.:     0.3915964 α      in ANC's #5, #10, #13, ...

........................................................................
.............................. CYCLE   81 ..............................
........................................................................

 iter      E             dE          RMSdq      gap      omega  full diag
   1    -20.4189833 -0.204190E+02  0.210E-01   13.25       0.0  T
   2    -20.4189943 -0.109363E-04  0.126E-01   13.23       1.0  T
   3    -20.4189976 -0.332831E-05  0.162E-02   13.23       1.8  T
   4    -20.4189979 -0.361957E-06  0.435E-03   13.24       6.6  T
   5    -20.4189980 -0.795687E-08  0.519E-04   13.24      55.6  T
   6    -20.4189980 -0.191854E-09  0.227E-04   13.24     127.1  T
     SCC iter.                  ...        0 min,  0.002 sec
     gradient                   ...        0 min,  0.000 sec
 * total energy  :   -20.2869823 Eh     change        0.6749580E-03 Eh
   gradient norm :     0.0441486 Eh/α   predicted    -0.6743059E-03 (-199.90%)
   displ. norm   :     0.1863803 α      lambda       -0.2439885E-02
   maximum displ.:     0.0994585 α      in ANC's #9, #13, #7, ...

........................................................................
.............................. CYCLE   82 ..............................
........................................................................

 iter      E             dE          RMSdq      gap      omega  full diag
   1    -20.4259741 -0.204260E+02  0.152E-01   13.87       0.0  T
   2    -20.4259806 -0.651713E-05  0.912E-02   13.87       1.0  T
   3    -20.4259826 -0.203074E-05  0.125E-02   13.87       2.3  T
   4    -20.4259828 -0.204859E-06  0.321E-03   13.87       9.0  T
   5    -20.4259828 -0.277047E-08  0.280E-04   13.87     103.0  T
   6    -20.4259828 -0.394635E-10  0.130E-04   13.87     221.5  T
     SCC iter.                  ...        0 min,  0.001 sec
     gradient                   ...        0 min,  0.001 sec
 * total energy  :   -20.2882782 Eh     change       -0.1295932E-02 Eh
   gradient norm :     0.0079771 Eh/α   predicted    -0.1262319E-02 (  -2.59%)
   displ. norm   :     0.6026652 α      lambda       -0.5577058E-03
   maximum displ.:     0.3654315 α      in ANC's #5, #9, #10, ...

........................................................................
.............................. CYCLE   83 ..............................
........................................................................

 iter      E             dE          RMSdq      gap      omega  full diag
   1    -20.4250959 -0.204251E+02  0.950E-02   13.81       0.0  T
   2    -20.4250971 -0.115928E-05  0.586E-02   13.82       1.0  T
   3    -20.4250977 -0.670679E-06  0.479E-03   13.82       6.0  T
   4    -20.4250978 -0.180510E-07  0.148E-03   13.82      19.5  T
   5    -20.4250978 -0.135178E-08  0.213E-04   13.82     135.6  T
   6    -20.4250978 -0.295657E-10  0.941E-05   13.82     306.8  T
     SCC iter.                  ...        0 min,  0.002 sec
     gradient                   ...        0 min,  0.000 sec
 * total energy  :   -20.2887891 Eh     change       -0.5109206E-03 Eh
   gradient norm :     0.0109550 Eh/α   predicted    -0.3801407E-03 ( -25.60%)
   displ. norm   :     0.8371800 α      lambda       -0.9428319E-03
   maximum displ.:     0.5283822 α      in ANC's #5, #9, #10, ...

........................................................................
.............................. CYCLE   84 ..............................
........................................................................

 iter      E             dE          RMSdq      gap      omega  full diag
   1    -20.4252569 -0.204253E+02  0.134E-01   13.74       0.0  T
   2    -20.4252620 -0.510991E-05  0.813E-02   13.75       1.0  T
   3    -20.4252637 -0.171924E-05  0.109E-02   13.76       2.7  T
   4    -20.4252639 -0.160217E-06  0.263E-03   13.75      11.0  T
   5    -20.4252639 -0.227052E-08  0.294E-04   13.75      98.0  T
   6    -20.4252639 -0.549356E-10  0.131E-04   13.75     220.3  T
     SCC iter.                  ...        0 min,  0.001 sec
     gradient                   ...        0 min,  0.001 sec
 * total energy  :   -20.2893760 Eh     change       -0.5868404E-03 Eh
   gradient norm :     0.0231349 Eh/α   predicted    -0.8018380E-03 (  36.64%)
   displ. norm   :     0.7103344 α      lambda       -0.1037801E-02
   maximum displ.:     0.4301161 α      in ANC's #5, #10, #9, ...

........................................................................
.............................. CYCLE   85 ..............................
........................................................................

 iter      E             dE          RMSdq      gap      omega  full diag
   1    -20.4238321 -0.204238E+02  0.108E-01   13.49       0.0  T
   2    -20.4238341 -0.200148E-05  0.663E-02   13.48       1.0  T
   3    -20.4238351 -0.954464E-06  0.653E-03   13.48       4.4  T
   4    -20.4238351 -0.487291E-07  0.205E-03   13.48      14.1  T
   5    -20.4238351 -0.201872E-08  0.249E-04   13.48     116.1  T
   6    -20.4238351 -0.413856E-10  0.114E-04   13.48     254.2  T
     SCC iter.                  ...        0 min,  0.002 sec
     gradient                   ...        0 min,  0.001 sec
 * total energy  :   -20.2902595 Eh     change       -0.8835596E-03 Eh
   gradient norm :     0.0151903 Eh/α   predicted    -0.7807215E-03 ( -11.64%)
   displ. norm   :     0.6144031 α      lambda       -0.1348021E-02
   maximum displ.:     0.3603137 α      in ANC's #5, #10, #9, ...

........................................................................
.............................. CYCLE   86 ..............................
........................................................................

 iter      E             dE          RMSdq      gap      omega  full diag
   1    -20.4295306 -0.204295E+02  0.165E-01   13.41       0.0  T
   2    -20.4295413 -0.107324E-04  0.977E-02   13.38       1.0  T
   3    -20.4295438 -0.251265E-05  0.162E-02   13.37       1.8  T
   4    -20.4295442 -0.334063E-06  0.326E-03   13.38       8.9  T
   5    -20.4295442 -0.150759E-08  0.335E-04   13.38      86.2  T
   6    -20.4295442 -0.684608E-10  0.107E-04   13.38     269.9  T
     SCC iter.                  ...        0 min,  0.002 sec
     gradient                   ...        0 min,  0.000 sec
 * total energy  :   -20.2906505 Eh     change       -0.3909412E-03 Eh
   gradient norm :     0.0273285 Eh/α   predicted    -0.9284519E-03 ( 137.49%)
   displ. norm   :     0.6310666 α      lambda       -0.1319843E-02
   maximum displ.:     0.3679355 α      in ANC's #5, #9, #10, ...

........................................................................
.............................. CYCLE   87 ..............................
........................................................................

 iter      E             dE          RMSdq      gap      omega  full diag
   1    -20.4270822 -0.204271E+02  0.128E-01   13.15       0.0  T
   2    -20.4270865 -0.429282E-05  0.783E-02   13.15       1.0  T
   3    -20.4270883 -0.185267E-05  0.965E-03   13.14       3.0  T
   4    -20.4270884 -0.112502E-06  0.278E-03   13.14      10.4  T
   5    -20.4270884 -0.277040E-08  0.285E-04   13.14     101.2  T
   6    -20.4270884 -0.538734E-10  0.137E-04   13.14     210.1  T
     SCC iter.                  ...        0 min,  0.002 sec
     gradient                   ...        0 min,  0.001 sec
 * total energy  :   -20.2915981 Eh     change       -0.9475937E-03 Eh
   gradient norm :     0.0136962 Eh/α   predicted    -0.9227160E-03 (  -2.63%)
   displ. norm   :     0.5659588 α      lambda       -0.8873168E-03
   maximum displ.:     0.3412938 α      in ANC's #5, #9, #10, ...

........................................................................
.............................. CYCLE   88 ..............................
........................................................................

 iter      E             dE          RMSdq      gap      omega  full diag
   1    -20.4269765 -0.204270E+02  0.123E-01   13.03       0.0  T
   2    -20.4269801 -0.368905E-05  0.754E-02   13.04       1.0  T
   3    -20.4269817 -0.154299E-05  0.870E-03   13.04       3.3  T
   4    -20.4269818 -0.933335E-07  0.239E-03   13.04      12.1  T
   5    -20.4269818 -0.156063E-08  0.234E-04   13.04     123.5  T
   6    -20.4269818 -0.329266E-10  0.111E-04   13.04     260.8  T
     SCC iter.                  ...        0 min,  0.002 sec
     gradient                   ...        0 min,  0.001 sec
 * total energy  :   -20.2920486 Eh     change       -0.4505788E-03 Eh
   gradient norm :     0.0155965 Eh/α   predicted    -0.5857523E-03 (  30.00%)
   displ. norm   :     0.4556020 α      lambda       -0.8175382E-03
   maximum displ.:     0.2728966 α      in ANC's #5, #9, #10, ...

........................................................................
.............................. CYCLE   89 ..............................
........................................................................

 iter      E             dE          RMSdq      gap      omega  full diag
   1    -20.4302746 -0.204303E+02  0.114E-01   12.93       0.0  T
   2    -20.4302807 -0.606313E-05  0.678E-02   12.91       1.0  T
   3    -20.4302823 -0.154965E-05  0.123E-02   12.89       2.3  T
   4    -20.4302824 -0.187582E-06  0.261E-03   12.90      11.0  T
   5    -20.4302824 -0.175366E-08  0.272E-04   12.90     106.2  T
   6    -20.4302824 -0.586766E-10  0.115E-04   12.90     250.8  T
     SCC iter.                  ...        0 min,  0.002 sec
     gradient                   ...        0 min,  0.000 sec
 * total energy  :   -20.2923582 Eh     change       -0.3095281E-03 Eh
   gradient norm :     0.0097938 Eh/α   predicted    -0.4936246E-03 (  59.48%)
   displ. norm   :     0.5255012 α      lambda       -0.8857329E-03
   maximum displ.:     0.2248240 α      in ANC's #11, #10, #3, ...

........................................................................
.............................. CYCLE   90 ..............................
........................................................................

 iter      E             dE          RMSdq      gap      omega  full diag
   1    -20.4348562 -0.204349E+02  0.192E-01   13.14       0.0  T
   2    -20.4348621 -0.593844E-05  0.119E-01   13.15       1.0  T
   3    -20.4348660 -0.384561E-05  0.114E-02   13.16       2.5  T
   4    -20.4348660 -0.894873E-07  0.301E-03   13.16       9.6  T
   5    -20.4348661 -0.843406E-08  0.536E-04   13.16      53.8  T
   6    -20.4348661 -0.218581E-09  0.209E-04   13.16     138.1  T
     SCC iter.                  ...        0 min,  0.001 sec
     gradient                   ...        0 min,  0.000 sec
 * total energy  :   -20.2927903 Eh     change       -0.4321024E-03 Eh
   gradient norm :     0.0212249 Eh/α   predicted    -0.5651818E-03 (  30.80%)
   displ. norm   :     0.7076807 α      lambda       -0.1542157E-02
   maximum displ.:     0.3787876 α      in ANC's #11, #9, #3, ...

........................................................................
.............................. CYCLE   91 ..............................
........................................................................

 iter      E             dE          RMSdq      gap      omega  full diag
   1    -20.4161357 -0.204161E+02  0.321E-01   11.89       0.0  T
   2    -20.4161705 -0.348046E-04  0.190E-01   11.88       1.0  T
   3    -20.4161796 -0.908850E-05  0.294E-02   11.89       1.0  T
   4    -20.4161807 -0.112799E-05  0.767E-03   11.89       3.8  T
   5    -20.4161807 -0.189511E-07  0.942E-04   11.89      30.7  T
   6    -20.4161807 -0.975113E-09  0.325E-04   11.89      88.9  T
     SCC iter.                  ...        0 min,  0.002 sec
     gradient                   ...        0 min,  0.000 sec
 * total energy  :   -20.2908024 Eh     change        0.1987823E-02 Eh
   gradient norm :     0.0648461 Eh/α   predicted    -0.1157232E-02 (-158.22%)
   displ. norm   :     0.2719319 α      lambda       -0.6172498E-02
   maximum displ.:     0.2353975 α      in ANC's #11, #5, #8, ...

........................................................................
.............................. CYCLE   92 ..............................
........................................................................

 iter      E             dE          RMSdq      gap      omega  full diag
   1    -20.4303940 -0.204304E+02  0.215E-01   12.84       0.0  T
   2    -20.4304116 -0.175167E-04  0.125E-01   12.84       1.0  T
   3    -20.4304153 -0.377556E-05  0.205E-02   12.84       1.4  T
   4    -20.4304159 -0.547195E-06  0.467E-03   12.84       6.2  T
   5    -20.4304159 -0.576315E-08  0.482E-04   12.84      59.9  T
   6    -20.4304159 -0.213905E-09  0.135E-04   12.84     214.0  T
     SCC iter.                  ...        0 min,  0.002 sec
     gradient                   ...        0 min,  0.000 sec
 * total energy  :   -20.2938510 Eh     change       -0.3048567E-02 Eh
   gradient norm :     0.0134121 Eh/α   predicted    -0.3314467E-02 (   8.72%)
   displ. norm   :     0.4031557 α      lambda       -0.9008714E-03
   maximum displ.:     0.2593235 α      in ANC's #5, #9, #3, ...
 * RMSD in coord.:     2.5060862 α      energy gain  -0.9192782E-02 Eh

generating ANC from exact Hessian ...
Using Lindh-Hessian (1995)
 Shifting diagonal of input Hessian by   1.033982564945778E-002
 Lowest  eigenvalues of input Hessian
    0.010000    0.010152    0.010214    0.010257    0.000000    0.000000
    0.000000    0.000000    0.000000    0.000000    0.010358    0.010361
    0.010383    0.010531    0.010652    0.010765    0.010767    0.010813
 Highest eigenvalues
    1.242671    1.243194    1.405199    1.434229    1.438749    1.444033
 

........................................................................
.............................. CYCLE   93 ..............................
........................................................................

 iter      E             dE          RMSdq      gap      omega  full diag
   1    -20.4318502 -0.204319E+02  0.860E-02   12.74       0.0  T
   2    -20.4318542 -0.395566E-05  0.503E-02   12.75       1.0  T
   3    -20.4318550 -0.806781E-06  0.100E-02   12.75       2.9  T
   4    -20.4318551 -0.111275E-06  0.171E-03   12.75      16.9  T
   5    -20.4318551 -0.734843E-09  0.204E-04   12.75     141.2  T
   6    -20.4318551 -0.319780E-10  0.784E-05   12.75     368.2  T
     SCC iter.                  ...        0 min,  0.002 sec
     gradient                   ...        0 min,  0.001 sec
 * total energy  :   -20.2945974 Eh     change       -0.7463735E-03 Eh
   gradient norm :     0.0122092 Eh/α   predicted     0.0000000E+00 (-100.00%)
   displ. norm   :     0.2364468 α      lambda       -0.8584026E-03
   maximum displ.:     0.1342297 α      in ANC's #14, #16, #15, ...

........................................................................
.............................. CYCLE   94 ..............................
........................................................................

 iter      E             dE          RMSdq      gap      omega  full diag
   1    -20.4308946 -0.204309E+02  0.126E-01   12.65       0.0  T
   2    -20.4308966 -0.197356E-05  0.786E-02   12.65       1.0  T
   3    -20.4308979 -0.130282E-05  0.581E-03   12.65       5.0  T
   4    -20.4308979 -0.130801E-07  0.937E-04   12.65      30.8  T
   5    -20.4308979 -0.799318E-09  0.305E-04   12.65      94.8  T
     SCC iter.                  ...        0 min,  0.001 sec
     gradient                   ...        0 min,  0.001 sec
 * total energy  :   -20.2953385 Eh     change       -0.7410971E-03 Eh
   gradient norm :     0.0060593 Eh/α   predicted    -0.4531933E-03 ( -38.85%)
   displ. norm   :     0.5688591 α      lambda       -0.1517831E-02
   maximum displ.:     0.3095551 α      in ANC's #14, #16, #12, ...

........................................................................
.............................. CYCLE   95 ..............................
........................................................................

 iter      E             dE          RMSdq      gap      omega  full diag
   1    -20.4239902 -0.204240E+02  0.223E-01   12.00       0.0  T
   2    -20.4239979 -0.775638E-05  0.137E-01   12.00       1.0  T
   3    -20.4240025 -0.461117E-05  0.130E-02   12.00       2.2  T
   4    -20.4240027 -0.137746E-06  0.405E-03   12.00       7.1  T
   5    -20.4240027 -0.119199E-07  0.648E-04   12.00      44.6  T
   6    -20.4240027 -0.268919E-09  0.263E-04   12.00     109.6  T
     SCC iter.                  ...        0 min,  0.001 sec
     gradient                   ...        0 min,  0.001 sec
 * total energy  :   -20.2959113 Eh     change       -0.5728665E-03 Eh
   gradient norm :     0.0311966 Eh/α   predicted    -0.1004506E-02 (  75.35%)
   displ. norm   :     0.2199679 α      lambda       -0.1314561E-02
   maximum displ.:     0.1490966 α      in ANC's #15, #16, #12, ...

........................................................................
.............................. CYCLE   96 ..............................
........................................................................

 iter      E             dE          RMSdq      gap      omega  full diag
   1    -20.4306326 -0.204306E+02  0.104E-01   12.39       0.0  T
   2    -20.4306361 -0.348172E-05  0.616E-02   12.39       1.0  T
   3    -20.4306370 -0.923331E-06  0.937E-03   12.38       3.1  T
   4    -20.4306371 -0.113834E-06  0.215E-03   12.38      13.4  T
   5    -20.4306371 -0.183803E-08  0.246E-04   12.38     117.2  T
   6    -20.4306371 -0.389306E-10  0.104E-04   12.38     278.0  T
     SCC iter.                  ...        0 min,  0.002 sec
     gradient                   ...        0 min,  0.000 sec
 * total energy  :   -20.2967405 Eh     change       -0.8291218E-03 Eh
   gradient norm :     0.0114823 Eh/α   predicted    -0.6890865E-03 ( -16.89%)
   displ. norm   :     0.4557914 α      lambda       -0.8835937E-03
   maximum displ.:     0.2313489 α      in ANC's #14, #16, #12, ...

........................................................................
.............................. CYCLE   97 ..............................
........................................................................

 iter      E             dE          RMSdq      gap      omega  full diag
   1    -20.4331798 -0.204332E+02  0.104E-01   12.37       0.0  T
   2    -20.4331863 -0.643930E-05  0.618E-02   12.36       1.0  T
   3    -20.4331874 -0.109592E-05  0.126E-02   12.34       2.3  T
   4    -20.4331875 -0.174674E-06  0.192E-03   12.34      15.1  T
   5    -20.4331875 -0.158526E-08  0.333E-04   12.34      86.6  T
   6    -20.4331875 -0.639275E-10  0.134E-04   12.34     215.6  T
     SCC iter.                  ...        0 min,  0.001 sec
     gradient                   ...        0 min,  0.001 sec
 * total energy  :   -20.2972916 Eh     change       -0.5511610E-03 Eh
   gradient norm :     0.0093700 Eh/α   predicted    -0.5335849E-03 (  -3.19%)
   displ. norm   :     0.1962287 α      lambda       -0.3204741E-03
   maximum displ.:     0.1242437 α      in ANC's #14, #12, #15, ...

........................................................................
.............................. CYCLE   98 ..............................
........................................................................

 iter      E             dE          RMSdq      gap      omega  full diag
   1    -20.4344773 -0.204345E+02  0.105E-01   12.33       0.0  T
   2    -20.4344805 -0.326672E-05  0.643E-02   12.32       1.0  T
   3    -20.4344815 -0.937612E-06  0.829E-03   12.31       3.5  T
   4    -20.4344816 -0.111032E-06  0.189E-03   12.31      15.2  T
   5    -20.4344816 -0.106485E-08  0.255E-04   12.31     113.3  T
   6    -20.4344816 -0.363052E-10  0.109E-04   12.31     265.9  T
     SCC iter.                  ...        0 min,  0.002 sec
     gradient                   ...        0 min,  0.001 sec
 * total energy  :   -20.2974683 Eh     change       -0.1766979E-03 Eh
   gradient norm :     0.0122661 Eh/α   predicted    -0.1664082E-03 (  -5.82%)
   displ. norm   :     0.3047727 α      lambda       -0.4895814E-03
   maximum displ.:     0.1958761 α      in ANC's #14, #15, #18, ...

........................................................................
.............................. CYCLE   99 ..............................
........................................................................

 iter      E             dE          RMSdq      gap      omega  full diag
   1    -20.4318522 -0.204319E+02  0.143E-01   12.11       0.0  T
   2    -20.4318543 -0.208467E-05  0.873E-02   12.11       1.0  T
   3    -20.4318551 -0.847498E-06  0.616E-03   12.10       4.7  T
   4    -20.4318552 -0.535751E-07  0.194E-03   12.10      14.9  T
   5    -20.4318552 -0.966327E-09  0.196E-04   12.10     147.4  T
   6    -20.4318552 -0.220162E-10  0.825E-05   12.10     349.9  T
     SCC iter.                  ...        0 min,  0.002 sec
     gradient                   ...        0 min,  0.001 sec
 * total energy  :   -20.2975286 Eh     change       -0.6026961E-04 Eh
   gradient norm :     0.0137329 Eh/α   predicted    -0.2675270E-03 ( 343.88%)
   displ. norm   :     0.1349202 α      lambda       -0.5207786E-03
   maximum displ.:     0.0696163 α      in ANC's #2, #18, #8, ...

........................................................................
.............................. CYCLE  100 ..............................
........................................................................

 iter      E             dE          RMSdq      gap      omega  full diag
   1    -20.4320022 -0.204320E+02  0.857E-02   12.12       0.0  T
   2    -20.4320036 -0.140442E-05  0.530E-02   12.12       1.0  T
   3    -20.4320043 -0.704145E-06  0.503E-03   12.12       5.7  T
   4    -20.4320043 -0.270554E-07  0.156E-03   12.12      18.5  T
   5    -20.4320043 -0.936591E-09  0.173E-04   12.12     166.6  T
   6    -20.4320043 -0.189608E-10  0.848E-05   12.12     340.4  T
     SCC iter.                  ...        0 min,  0.001 sec
     gradient                   ...        0 min,  0.002 sec
 * total energy  :   -20.2978363 Eh     change       -0.3077299E-03 Eh
   gradient norm :     0.0086295 Eh/α   predicted    -0.2651284E-03 ( -13.84%)
   displ. norm   :     0.1728679 α      lambda       -0.2325293E-03
   maximum displ.:     0.1123413 α      in ANC's #2, #12, #18, ...

........................................................................
.............................. CYCLE  101 ..............................
........................................................................

 iter      E             dE          RMSdq      gap      omega  full diag
   1    -20.4332645 -0.204333E+02  0.585E-02   12.13       0.0  T
   2    -20.4332649 -0.358923E-06  0.359E-02   12.13       1.0  T
   3    -20.4332651 -0.211455E-06  0.270E-03   12.13      10.7  T
   4    -20.4332651 -0.518094E-08  0.820E-04   12.13      35.2  T
   5    -20.4332651 -0.475914E-09  0.127E-04   12.13     227.6  T
     SCC iter.                  ...        0 min,  0.001 sec
     gradient                   ...        0 min,  0.001 sec
 * total energy  :   -20.2979901 Eh     change       -0.1537864E-03 Eh
   gradient norm :     0.0077839 Eh/α   predicted    -0.1197384E-03 ( -22.14%)
   displ. norm   :     0.3743775 α      lambda       -0.3181046E-03
   maximum displ.:     0.2165191 α      in ANC's #2, #14, #4, ...

........................................................................
.............................. CYCLE  102 ..............................
........................................................................

 iter      E             dE          RMSdq      gap      omega  full diag
   1    -20.4302673 -0.204303E+02  0.155E-01   12.02       0.0  T
   2    -20.4302710 -0.364962E-05  0.963E-02   12.01       1.0  T
   3    -20.4302731 -0.209335E-05  0.803E-03   12.01       3.6  T
   4    -20.4302731 -0.492239E-07  0.239E-03   12.01      12.1  T
   5    -20.4302731 -0.307804E-08  0.336E-04   12.01      86.0  T
   6    -20.4302731 -0.748202E-10  0.155E-04   12.01     186.6  T
     SCC iter.                  ...        0 min,  0.002 sec
     gradient                   ...        0 min,  0.001 sec
 * total energy  :   -20.2981375 Eh     change       -0.1473567E-03 Eh
   gradient norm :     0.0150798 Eh/α   predicted    -0.1813439E-03 (  23.06%)
   displ. norm   :     0.1732860 α      lambda       -0.3155233E-03
   maximum displ.:     0.1271803 α      in ANC's #2, #4, #12, ...

........................................................................
.............................. CYCLE  103 ..............................
........................................................................

 iter      E             dE          RMSdq      gap      omega  full diag
   1    -20.4333747 -0.204334E+02  0.566E-02   12.11       0.0  T
   2    -20.4333754 -0.649237E-06  0.344E-02   12.11       1.0  T
   3    -20.4333757 -0.262494E-06  0.377E-03   12.10       7.7  T
   4    -20.4333757 -0.168634E-07  0.110E-03   12.11      26.3  T
   5    -20.4333757 -0.317883E-09  0.103E-04   12.11     281.3  T
   6    -20.4333757 -0.573408E-11  0.469E-05   12.11     615.3  T
     SCC iter.                  ...        0 min,  0.001 sec
     gradient                   ...        0 min,  0.001 sec
 * total energy  :   -20.2982974 Eh     change       -0.1599662E-03 Eh
   gradient norm :     0.0088209 Eh/α   predicted    -0.1624986E-03 (   1.58%)
   displ. norm   :     0.3124254 α      lambda       -0.4402663E-03
   maximum displ.:     0.1926485 α      in ANC's #2, #12, #4, ...

........................................................................
.............................. CYCLE  104 ..............................
........................................................................

 iter      E             dE          RMSdq      gap      omega  full diag
   1    -20.4334359 -0.204334E+02  0.141E-01   12.17       0.0  T
   2    -20.4334403 -0.436707E-05  0.868E-02   12.17       1.0  T
   3    -20.4334419 -0.163330E-05  0.903E-03   12.17       3.2  T
   4    -20.4334421 -0.124835E-06  0.236E-03   12.17      12.2  T
   5    -20.4334421 -0.119927E-08  0.226E-04   12.17     127.8  T
   6    -20.4334421 -0.252633E-10  0.111E-04   12.17     260.7  T
     SCC iter.                  ...        0 min,  0.001 sec
     gradient                   ...        0 min,  0.001 sec
 * total energy  :   -20.2984135 Eh     change       -0.1160848E-03 Eh
   gradient norm :     0.0150120 Eh/α   predicted    -0.2416198E-03 ( 108.14%)
   displ. norm   :     0.2662778 α      lambda       -0.3609087E-03
   maximum displ.:     0.1540593 α      in ANC's #2, #14, #6, ...

........................................................................
.............................. CYCLE  105 ..............................
........................................................................

 iter      E             dE          RMSdq      gap      omega  full diag
   1    -20.4306314 -0.204306E+02  0.100E-01   12.14       0.0  T
   2    -20.4306333 -0.188100E-05  0.614E-02   12.14       1.0  T
   3    -20.4306342 -0.923241E-06  0.661E-03   12.14       4.4  T
   4    -20.4306343 -0.454398E-07  0.209E-03   12.14      13.8  T
   5    -20.4306343 -0.247483E-08  0.293E-04   12.14      98.6  T
   6    -20.4306343 -0.548326E-10  0.122E-04   12.14     236.4  T
     SCC iter.                  ...        0 min,  0.002 sec
     gradient                   ...        0 min,  0.000 sec
 * total energy  :   -20.2985880 Eh     change       -0.1744844E-03 Eh
   gradient norm :     0.0146248 Eh/α   predicted    -0.1932509E-03 (  10.76%)
   displ. norm   :     0.2207947 α      lambda       -0.4419794E-03
   maximum displ.:     0.1533603 α      in ANC's #2, #11, #14, ...

........................................................................
.............................. CYCLE  106 ..............................
........................................................................

 iter      E             dE          RMSdq      gap      omega  full diag
   1    -20.4345458 -0.204345E+02  0.104E-01   12.18       0.0  T
   2    -20.4345505 -0.468777E-05  0.615E-02   12.18       1.0  T
   3    -20.4345517 -0.120117E-05  0.109E-02   12.19       2.6  T
   4    -20.4345518 -0.149949E-06  0.258E-03   12.19      11.2  T
   5    -20.4345518 -0.258278E-08  0.262E-04   12.19     110.3  T
   6    -20.4345518 -0.570637E-10  0.107E-04   12.19     270.2  T
     SCC iter.                  ...        0 min,  0.001 sec
     gradient                   ...        0 min,  0.001 sec
 * total energy  :   -20.2985521 Eh     change        0.3594634E-04 Eh
   gradient norm :     0.0216298 Eh/α   predicted    -0.2317622E-03 (-744.74%)
   displ. norm   :     0.1313351 α      lambda       -0.5295600E-03
   maximum displ.:     0.0612443 α      in ANC's #2, #5, #6, ...

........................................................................
.............................. CYCLE  107 ..............................
........................................................................

 iter      E             dE          RMSdq      gap      omega  full diag
   1    -20.4340958 -0.204341E+02  0.956E-02   12.16       0.0  T
   2    -20.4340995 -0.372811E-05  0.571E-02   12.15       1.0  T
   3    -20.4341004 -0.942684E-06  0.970E-03   12.14       3.0  T
   4    -20.4341006 -0.120537E-06  0.202E-03   12.15      14.3  T
   5    -20.4341006 -0.108361E-08  0.181E-04   12.15     159.8  T
   6    -20.4341006 -0.231850E-10  0.885E-05   12.15     326.3  T
     SCC iter.                  ...        0 min,  0.001 sec
     gradient                   ...        0 min,  0.001 sec
 * total energy  :   -20.2988132 Eh     change       -0.2611170E-03 Eh
   gradient norm :     0.0107883 Eh/α   predicted    -0.2693487E-03 (   3.15%)
   displ. norm   :     0.2652605 α      lambda       -0.5392897E-03
   maximum displ.:     0.1750202 α      in ANC's #2, #11, #6, ...

........................................................................
.............................. CYCLE  108 ..............................
........................................................................

 iter      E             dE          RMSdq      gap      omega  full diag
   1    -20.4341274 -0.204341E+02  0.143E-01   12.46       0.0  T
   2    -20.4341351 -0.763195E-05  0.846E-02   12.47       1.0  T
   3    -20.4341369 -0.181885E-05  0.137E-02   12.47       2.1  T
   4    -20.4341371 -0.240549E-06  0.301E-03   12.47       9.6  T
   5    -20.4341371 -0.249162E-08  0.344E-04   12.47      84.0  T
   6    -20.4341371 -0.790195E-10  0.125E-04   12.47     231.8  T
     SCC iter.                  ...        0 min,  0.001 sec
     gradient                   ...        0 min,  0.001 sec
 * total energy  :   -20.2984736 Eh     change        0.3395956E-03 Eh
   gradient norm :     0.0288940 Eh/α   predicted    -0.2886177E-03 (-184.99%)
   displ. norm   :     0.1700209 α      lambda       -0.1085689E-02
   maximum displ.:     0.0722350 α      in ANC's #5, #16, #2, ...

........................................................................
.............................. CYCLE  109 ..............................
........................................................................

 iter      E             dE          RMSdq      gap      omega  full diag
   1    -20.4312170 -0.204312E+02  0.132E-01   12.15       0.0  T
   2    -20.4312229 -0.592919E-05  0.786E-02   12.15       1.0  T
   3    -20.4312243 -0.138559E-05  0.121E-02   12.15       2.4  T
   4    -20.4312245 -0.191548E-06  0.245E-03   12.15      11.8  T
   5    -20.4312245 -0.119757E-08  0.235E-04   12.15     123.0  T
   6    -20.4312245 -0.415987E-10  0.924E-05   12.15     312.6  T
     SCC iter.                  ...        0 min,  0.002 sec
     gradient                   ...        0 min,  0.001 sec
 * total energy  :   -20.2989997 Eh     change       -0.5261428E-03 Eh
   gradient norm :     0.0126382 Eh/α   predicted    -0.5585352E-03 (   6.16%)
   displ. norm   :     0.1590420 α      lambda       -0.4270958E-03
   maximum displ.:     0.0997195 α      in ANC's #16, #11, #7, ...

........................................................................
.............................. CYCLE  110 ..............................
........................................................................

 iter      E             dE          RMSdq      gap      omega  full diag
   1    -20.4394122 -0.204394E+02  0.114E-01   12.33       0.0  T
   2    -20.4394166 -0.434032E-05  0.677E-02   12.32       1.0  T
   3    -20.4394178 -0.121988E-05  0.103E-02   12.31       2.8  T
   4    -20.4394179 -0.141442E-06  0.253E-03   12.32      11.4  T
   5    -20.4394179 -0.243185E-08  0.264E-04   12.32     109.4  T
   6    -20.4394179 -0.372999E-10  0.115E-04   12.32     250.9  T
     SCC iter.                  ...        0 min,  0.003 sec
     gradient                   ...        0 min,  0.000 sec
 * total energy  :   -20.2988527 Eh     change        0.1470543E-03 Eh
   gradient norm :     0.0196041 Eh/α   predicted    -0.2189479E-03 (-248.89%)
   displ. norm   :     0.2624579 α      lambda       -0.5677494E-03
   maximum displ.:     0.1703156 α      in ANC's #2, #12, #6, ...

........................................................................
.............................. CYCLE  111 ..............................
........................................................................

 iter      E             dE          RMSdq      gap      omega  full diag
   1    -20.4343741 -0.204344E+02  0.108E-01   12.22       0.0  T
   2    -20.4343762 -0.213407E-05  0.658E-02   12.22       1.0  T
   3    -20.4343770 -0.830221E-06  0.671E-03   12.23       4.3  T
   4    -20.4343771 -0.594062E-07  0.181E-03   12.22      15.9  T
   5    -20.4343771 -0.839762E-09  0.194E-04   12.22     149.2  T
   6    -20.4343771 -0.191704E-10  0.868E-05   12.22     332.6  T
     SCC iter.                  ...        0 min,  0.002 sec
     gradient                   ...        0 min,  0.000 sec
 * total energy  :   -20.2992383 Eh     change       -0.3856298E-03 Eh
   gradient norm :     0.0059507 Eh/α   predicted    -0.3034289E-03 ( -21.32%)
   displ. norm   :     0.4275940 α      lambda       -0.3154928E-03
   maximum displ.:     0.3024195 α      in ANC's #2, #12, #14, ...

........................................................................
.............................. CYCLE  112 ..............................
........................................................................

 iter      E             dE          RMSdq      gap      omega  full diag
   1    -20.4310007 -0.204310E+02  0.120E-01   12.15       0.0  T
   2    -20.4310026 -0.182756E-05  0.740E-02   12.15       1.0  T
   3    -20.4310034 -0.872858E-06  0.563E-03   12.15       5.1  T
   4    -20.4310035 -0.354651E-07  0.167E-03   12.15      17.3  T
   5    -20.4310035 -0.736524E-09  0.182E-04   12.15     158.4  T
   6    -20.4310035 -0.194014E-10  0.794E-05   12.15     363.5  T
     SCC iter.                  ...        0 min,  0.001 sec
     gradient                   ...        0 min,  0.001 sec
 * total energy  :   -20.2994255 Eh     change       -0.1871963E-03 Eh
   gradient norm :     0.0150262 Eh/α   predicted    -0.1865827E-03 (  -0.33%)
   displ. norm   :     0.3543142 α      lambda       -0.3379773E-03
   maximum displ.:     0.2383459 α      in ANC's #2, #17, #1, ...

........................................................................
.............................. CYCLE  113 ..............................
........................................................................

 iter      E             dE          RMSdq      gap      omega  full diag
   1    -20.4310869 -0.204311E+02  0.862E-02   12.16       0.0  T
   2    -20.4310876 -0.712935E-06  0.528E-02   12.16       1.0  T
   3    -20.4310880 -0.397322E-06  0.390E-03   12.15       7.4  T
   4    -20.4310880 -0.115914E-07  0.121E-03   12.15      23.9  T
   5    -20.4310880 -0.788233E-09  0.150E-04   12.15     192.5  T
   6    -20.4310880 -0.148397E-10  0.670E-05   12.15     430.8  T
     SCC iter.                  ...        0 min,  0.003 sec
     gradient                   ...        0 min,  0.000 sec
 * total energy  :   -20.2997107 Eh     change       -0.2851687E-03 Eh
   gradient norm :     0.0166971 Eh/α   predicted    -0.1902038E-03 ( -33.30%)
   displ. norm   :     0.6168988 α      lambda       -0.9864061E-03
   maximum displ.:     0.3321255 α      in ANC's #2, #1, #17, ...

........................................................................
.............................. CYCLE  114 ..............................
........................................................................

 iter      E             dE          RMSdq      gap      omega  full diag
   1    -20.4353666 -0.204354E+02  0.173E-01   12.23       0.0  T
   2    -20.4353733 -0.672420E-05  0.106E-01   12.22       1.0  T
   3    -20.4353766 -0.328712E-05  0.128E-02   12.20       2.3  T
   4    -20.4353768 -0.201681E-06  0.420E-03   12.20       6.9  T
   5    -20.4353768 -0.994633E-08  0.307E-04   12.20      94.2  T
   6    -20.4353768 -0.688161E-10  0.134E-04   12.20     215.4  T
     SCC iter.                  ...        0 min,  0.001 sec
     gradient                   ...        0 min,  0.001 sec
 * total energy  :   -20.3002376 Eh     change       -0.5268902E-03 Eh
   gradient norm :     0.0209583 Eh/α   predicted    -0.6809028E-03 (  29.23%)
   displ. norm   :     0.5870423 α      lambda       -0.9015233E-03
   maximum displ.:     0.3690175 α      in ANC's #2, #14, #6, ...

........................................................................
.............................. CYCLE  115 ..............................
........................................................................

 iter      E             dE          RMSdq      gap      omega  full diag
   1    -20.4305016 -0.204305E+02  0.160E-01   12.02       0.0  T
   2    -20.4305083 -0.674787E-05  0.981E-02   12.01       1.0  T
   3    -20.4305113 -0.293397E-05  0.123E-02   12.00       2.3  T
   4    -20.4305115 -0.182420E-06  0.386E-03   12.00       7.5  T
   5    -20.4305115 -0.688439E-08  0.500E-04   12.00      57.7  T
   6    -20.4305115 -0.170086E-09  0.213E-04   12.00     135.4  T
     SCC iter.                  ...        0 min,  0.002 sec
     gradient                   ...        0 min,  0.000 sec
 * total energy  :   -20.3004419 Eh     change       -0.2043650E-03 Eh
   gradient norm :     0.0302241 Eh/α   predicted    -0.6061002E-03 ( 196.58%)
   displ. norm   :     0.2155673 α      lambda       -0.1170103E-02
   maximum displ.:     0.1058846 α      in ANC's #17, #13, #14, ...

........................................................................
.............................. CYCLE  116 ..............................
........................................................................

 iter      E             dE          RMSdq      gap      omega  full diag
   1    -20.4362022 -0.204362E+02  0.126E-01   12.00       0.0  T
   2    -20.4362066 -0.441963E-05  0.751E-02   11.98       1.0  T
   3    -20.4362084 -0.176760E-05  0.104E-02   11.98       2.8  T
   4    -20.4362085 -0.129067E-06  0.342E-03   11.98       8.4  T
   5    -20.4362085 -0.683404E-08  0.410E-04   11.98      70.4  T
   6    -20.4362085 -0.116220E-09  0.173E-04   11.98     166.5  T
     SCC iter.                  ...        0 min,  0.002 sec
     gradient                   ...        0 min,  0.000 sec
 * total energy  :   -20.3004741 Eh     change       -0.3218026E-04 Eh
   gradient norm :     0.0304070 Eh/α   predicted    -0.6122397E-03 (1802.53%)
   displ. norm   :     0.3236243 α      lambda       -0.1552654E-02
   maximum displ.:     0.1835635 α      in ANC's #2, #17, #10, ...

........................................................................
.............................. CYCLE  117 ..............................
........................................................................

 iter      E             dE          RMSdq      gap      omega  full diag
   1    -20.4331384 -0.204331E+02  0.151E-01   12.00       0.0  T
   2    -20.4331444 -0.603005E-05  0.917E-02   12.01       1.0  T
   3    -20.4331472 -0.285161E-05  0.120E-02   12.02       2.4  T
   4    -20.4331474 -0.159989E-06  0.396E-03   12.01       7.3  T
   5    -20.4331474 -0.101706E-07  0.526E-04   12.01      54.9  T
   6    -20.4331474 -0.228663E-09  0.204E-04   12.01     141.4  T
     SCC iter.                  ...        0 min,  0.001 sec
     gradient                   ...        0 min,  0.001 sec
 * total energy  :   -20.3006527 Eh     change       -0.1785943E-03 Eh
   gradient norm :     0.0292434 Eh/α   predicted    -0.8576419E-03 ( 380.22%)
   displ. norm   :     0.1770138 α      lambda       -0.1232811E-02
   maximum displ.:     0.0993294 α      in ANC's #10, #13, #16, ...

........................................................................
.............................. CYCLE  118 ..............................
........................................................................

 iter      E             dE          RMSdq      gap      omega  full diag
   1    -20.4376174 -0.204376E+02  0.119E-01   12.19       0.0  T
   2    -20.4376230 -0.562993E-05  0.707E-02   12.18       1.0  T
   3    -20.4376250 -0.200419E-05  0.119E-02   12.18       2.4  T
   4    -20.4376252 -0.177032E-06  0.344E-03   12.18       8.4  T
   5    -20.4376252 -0.575971E-08  0.372E-04   12.18      77.6  T
   6    -20.4376252 -0.117435E-09  0.153E-04   12.18     189.0  T
     SCC iter.                  ...        0 min,  0.001 sec
     gradient                   ...        0 min,  0.001 sec
 * total energy  :   -20.3010311 Eh     change       -0.3784440E-03 Eh
   gradient norm :     0.0180824 Eh/α   predicted    -0.6357190E-03 (  67.98%)
   displ. norm   :     0.3693616 α      lambda       -0.8406102E-03
   maximum displ.:     0.2051667 α      in ANC's #2, #5, #16, ...

........................................................................
.............................. CYCLE  119 ..............................
........................................................................

 iter      E             dE          RMSdq      gap      omega  full diag
   1    -20.4317228 -0.204317E+02  0.171E-01   11.85       0.0  T
   2    -20.4317396 -0.168093E-04  0.101E-01   11.83       1.0  T
   3    -20.4317433 -0.372845E-05  0.208E-02   11.82       1.4  T
   4    -20.4317438 -0.477338E-06  0.406E-03   11.82       7.1  T
   5    -20.4317438 -0.397799E-08  0.459E-04   11.82      62.9  T
   6    -20.4317438 -0.180602E-09  0.193E-04   11.82     149.7  T
     SCC iter.                  ...        0 min,  0.001 sec
     gradient                   ...        0 min,  0.001 sec
 * total energy  :   -20.3008691 Eh     change        0.1620116E-03 Eh
   gradient norm :     0.0291241 Eh/α   predicted    -0.4776450E-03 (-394.82%)
   displ. norm   :     0.1416501 α      lambda       -0.1173655E-02
   maximum displ.:     0.0634761 α      in ANC's #14, #2, #5, ...

........................................................................
.............................. CYCLE  120 ..............................
........................................................................

 iter      E             dE          RMSdq      gap      omega  full diag
   1    -20.4349034 -0.204349E+02  0.116E-01   11.99       0.0  T
   2    -20.4349106 -0.721569E-05  0.675E-02   12.00       1.0  T
   3    -20.4349123 -0.168715E-05  0.135E-02   12.01       2.1  T
   4    -20.4349125 -0.209514E-06  0.290E-03   12.01      10.0  T
   5    -20.4349125 -0.236036E-08  0.258E-04   12.01     112.0  T
   6    -20.4349125 -0.527081E-10  0.111E-04   12.01     260.1  T
     SCC iter.                  ...        0 min,  0.004 sec
     gradient                   ...        0 min,  0.000 sec
 * total energy  :   -20.3013248 Eh     change       -0.4556637E-03 Eh
   gradient norm :     0.0131023 Eh/α   predicted    -0.5986021E-03 (  31.37%)
   displ. norm   :     0.1727017 α      lambda       -0.4294826E-03
   maximum displ.:     0.0961979 α      in ANC's #2, #1, #17, ...
 * RMSD in coord.:     1.6250898 α      energy gain  -0.7473780E-02 Eh

generating ANC from exact Hessian ...
Using Lindh-Hessian (1995)
 Shifting diagonal of input Hessian by   1.013509747194198E-002
 Lowest  eigenvalues of input Hessian
    0.010000    0.010033    0.010082    0.000000    0.000000    0.000000
    0.000000    0.000000    0.000000    0.010244    0.010267    0.010390
    0.010575    0.010585    0.010620    0.010711    0.010827    0.012418
 Highest eigenvalues
    1.223326    1.228262    1.395964    1.423662    1.447017    1.465099
 

........................................................................
.............................. CYCLE  121 ..............................
........................................................................

 iter      E             dE          RMSdq      gap      omega  full diag
   1    -20.4371083 -0.204371E+02  0.838E-02   12.09       0.0  T
   2    -20.4371107 -0.243739E-05  0.505E-02   12.10       1.0  T
   3    -20.4371117 -0.995595E-06  0.781E-03   12.10       3.7  T
   4    -20.4371118 -0.677974E-07  0.225E-03   12.10      12.8  T
   5    -20.4371118 -0.245020E-08  0.269E-04   12.10     107.1  T
   6    -20.4371118 -0.555005E-10  0.111E-04   12.10     260.9  T
     SCC iter.                  ...        0 min,  0.001 sec
     gradient                   ...        0 min,  0.000 sec
 * total energy  :   -20.3013214 Eh     change        0.3391075E-05 Eh
   gradient norm :     0.0158999 Eh/α   predicted     0.0000000E+00 (-100.00%)
   displ. norm   :     0.1601329 α      lambda       -0.4969079E-03
   maximum displ.:     0.1274374 α      in ANC's #5, #11, #4, ...

........................................................................
.............................. CYCLE  122 ..............................
........................................................................

 iter      E             dE          RMSdq      gap      omega  full diag
   1    -20.4357107 -0.204357E+02  0.107E-01   12.06       0.0  T
   2    -20.4357122 -0.146650E-05  0.663E-02   12.06       1.0  T
   3    -20.4357129 -0.734544E-06  0.459E-03   12.06       6.3  T
   4    -20.4357130 -0.238047E-07  0.136E-03   12.06      21.2  T
   5    -20.4357130 -0.378112E-09  0.123E-04   12.06     235.6  T
   6    -20.4357130 -0.938627E-11  0.473E-05   12.06     610.3  T
     SCC iter.                  ...        0 min,  0.001 sec
     gradient                   ...        0 min,  0.001 sec
 * total energy  :   -20.3017066 Eh     change       -0.3852262E-03 Eh
   gradient norm :     0.0070883 Eh/α   predicted    -0.2548251E-03 ( -33.85%)
   displ. norm   :     0.3458616 α      lambda       -0.7157191E-03
   maximum displ.:     0.2140502 α      in ANC's #5, #11, #6, ...

........................................................................
.............................. CYCLE  123 ..............................
........................................................................

 iter      E             dE          RMSdq      gap      omega  full diag
   1    -20.4316101 -0.204316E+02  0.175E-01   11.90       0.0  T
   2    -20.4316154 -0.525942E-05  0.106E-01   11.89       1.0  T
   3    -20.4316172 -0.184798E-05  0.104E-02   11.89       2.8  T
   4    -20.4316174 -0.159637E-06  0.290E-03   11.89      10.0  T
   5    -20.4316174 -0.252502E-08  0.307E-04   11.89      94.0  T
   6    -20.4316174 -0.629896E-10  0.135E-04   11.89     214.1  T
     SCC iter.                  ...        0 min,  0.001 sec
     gradient                   ...        0 min,  0.001 sec
 * total energy  :   -20.3019136 Eh     change       -0.2069537E-03 Eh
   gradient norm :     0.0250473 Eh/α   predicted    -0.4006603E-03 (  93.60%)
   displ. norm   :     0.1486538 α      lambda       -0.6585656E-03
   maximum displ.:     0.0896080 α      in ANC's #5, #11, #16, ...

........................................................................
.............................. CYCLE  124 ..............................
........................................................................

 iter      E             dE          RMSdq      gap      omega  full diag
   1    -20.4337109 -0.204337E+02  0.100E-01   11.97       0.0  T
   2    -20.4337130 -0.206834E-05  0.624E-02   11.97       1.0  T
   3    -20.4337140 -0.105269E-05  0.597E-03   11.97       4.8  T
   4    -20.4337141 -0.361810E-07  0.178E-03   11.97      16.3  T
   5    -20.4337141 -0.109322E-08  0.185E-04   11.97     155.8  T
   6    -20.4337141 -0.230145E-10  0.856E-05   11.97     337.1  T
     SCC iter.                  ...        0 min,  0.002 sec
     gradient                   ...        0 min,  0.001 sec
 * total energy  :   -20.3023075 Eh     change       -0.3938832E-03 Eh
   gradient norm :     0.0122892 Eh/α   predicted    -0.3365586E-03 ( -14.55%)
   displ. norm   :     0.2316823 α      lambda       -0.4364417E-03
   maximum displ.:     0.1870845 α      in ANC's #5, #6, #4, ...

........................................................................
.............................. CYCLE  125 ..............................
........................................................................

 iter      E             dE          RMSdq      gap      omega  full diag
   1    -20.4356047 -0.204356E+02  0.626E-02   12.03       0.0  T
   2    -20.4356054 -0.733311E-06  0.381E-02   12.03       1.0  T
   3    -20.4356057 -0.296597E-06  0.402E-03   12.03       7.2  T
   4    -20.4356057 -0.217676E-07  0.118E-03   12.03      24.4  T
   5    -20.4356057 -0.694008E-09  0.150E-04   12.03     192.1  T
   6    -20.4356057 -0.154898E-10  0.650E-05   12.03     443.8  T
     SCC iter.                  ...        0 min,  0.003 sec
     gradient                   ...        0 min,  0.000 sec
 * total energy  :   -20.3026904 Eh     change       -0.3829526E-03 Eh
   gradient norm :     0.0064710 Eh/α   predicted    -0.2299346E-03 ( -39.96%)
   displ. norm   :     0.7805168 α      lambda       -0.1278028E-02
   maximum displ.:     0.6779567 α      in ANC's #5, #6, #9, ...

........................................................................
.............................. CYCLE  126 ..............................
........................................................................

 iter      E             dE          RMSdq      gap      omega  full diag
   1    -20.4322508 -0.204323E+02  0.285E-01   12.02       0.0  T
   2    -20.4322647 -0.138595E-04  0.175E-01   12.06       1.0  T
   3    -20.4322705 -0.576103E-05  0.165E-02   12.09       1.8  T
   4    -20.4322708 -0.381883E-06  0.489E-03   12.08       5.9  T
   5    -20.4322708 -0.925527E-08  0.541E-04   12.08      53.4  T
   6    -20.4322708 -0.225597E-09  0.253E-04   12.08     113.9  T
     SCC iter.                  ...        0 min,  0.001 sec
     gradient                   ...        0 min,  0.001 sec
 * total energy  :   -20.3031444 Eh     change       -0.4539688E-03 Eh
   gradient norm :     0.0360392 Eh/α   predicted    -0.1028269E-02 ( 126.51%)
   displ. norm   :     0.3531164 α      lambda       -0.2145140E-02
   maximum displ.:     0.2408692 α      in ANC's #5, #4, #6, ...

........................................................................
.............................. CYCLE  127 ..............................
........................................................................

 iter      E             dE          RMSdq      gap      omega  full diag
   1    -20.4399781 -0.204400E+02  0.125E-01   12.30       0.0  T
   2    -20.4399878 -0.974030E-05  0.714E-02   12.27       1.0  T
   3    -20.4399899 -0.213545E-05  0.155E-02   12.25       1.9  T
   4    -20.4399902 -0.254877E-06  0.307E-03   12.26       9.4  T
   5    -20.4399902 -0.330682E-08  0.404E-04   12.26      71.4  T
   6    -20.4399902 -0.146144E-09  0.152E-04   12.26     190.1  T
     SCC iter.                  ...        0 min,  0.002 sec
     gradient                   ...        0 min,  0.001 sec
 * total energy  :   -20.3043859 Eh     change       -0.1241496E-02 Eh
   gradient norm :     0.0149262 Eh/α   predicted    -0.1206309E-02 (  -2.83%)
   displ. norm   :     0.7362360 α      lambda       -0.1462288E-02
   maximum displ.:     0.6065051 α      in ANC's #5, #6, #4, ...

........................................................................
.............................. CYCLE  128 ..............................
........................................................................

 iter      E             dE          RMSdq      gap      omega  full diag
   1    -20.4379047 -0.204379E+02  0.166E-01   12.11       0.0  T
   2    -20.4379095 -0.481988E-05  0.101E-01   12.11       1.0  T
   3    -20.4379113 -0.180378E-05  0.101E-02   12.11       2.8  T
   4    -20.4379115 -0.151000E-06  0.284E-03   12.11      10.2  T
   5    -20.4379115 -0.424836E-08  0.409E-04   12.11      70.7  T
   6    -20.4379115 -0.101018E-09  0.177E-04   12.11     163.4  T
     SCC iter.                  ...        0 min,  0.001 sec
     gradient                   ...        0 min,  0.002 sec
 * total energy  :   -20.3058021 Eh     change       -0.1416198E-02 Eh
   gradient norm :     0.0137909 Eh/α   predicted    -0.1127451E-02 ( -20.39%)
   displ. norm   :     0.8314163 α      lambda       -0.2225604E-02
   maximum displ.:     0.7080583 α      in ANC's #5, #6, #11, ...

........................................................................
.............................. CYCLE  129 ..............................
........................................................................

 iter      E             dE          RMSdq      gap      omega  full diag
   1    -20.4336331 -0.204336E+02  0.251E-01   11.92       0.0  T
   2    -20.4336497 -0.165765E-04  0.152E-01   11.94       1.0  T
   3    -20.4336545 -0.473862E-05  0.192E-02   11.95       1.5  T
   4    -20.4336550 -0.531150E-06  0.468E-03   11.95       6.2  T
   5    -20.4336550 -0.473843E-08  0.542E-04   11.95      53.3  T
   6    -20.4336550 -0.174168E-09  0.203E-04   11.95     142.5  T
     SCC iter.                  ...        0 min,  0.001 sec
     gradient                   ...        0 min,  0.001 sec
 * total energy  :   -20.3059186 Eh     change       -0.1165649E-03 Eh
   gradient norm :     0.0455790 Eh/α   predicted    -0.1882032E-02 (1514.58%)
   displ. norm   :     0.3687305 α      lambda       -0.3371958E-02
   maximum displ.:     0.2061717 α      in ANC's #5, #6, #4, ...

........................................................................
.............................. CYCLE  130 ..............................
........................................................................

 iter      E             dE          RMSdq      gap      omega  full diag
   1    -20.4334370 -0.204334E+02  0.199E-01   11.96       0.0  T
   2    -20.4334530 -0.159685E-04  0.117E-01   11.94       1.0  T
   3    -20.4334577 -0.467497E-05  0.197E-02   11.93       1.5  T
   4    -20.4334581 -0.471582E-06  0.528E-03   11.93       5.5  T
   5    -20.4334581 -0.115637E-07  0.725E-04   11.93      39.8  T
   6    -20.4334581 -0.410040E-09  0.270E-04   11.93     107.0  T
     SCC iter.                  ...        0 min,  0.001 sec
     gradient                   ...        0 min,  0.002 sec
 * total energy  :   -20.3068262 Eh     change       -0.9075523E-03 Eh
   gradient norm :     0.0241386 Eh/α   predicted    -0.1915209E-02 ( 111.03%)
   displ. norm   :     0.5650080 α      lambda       -0.1836639E-02
   maximum displ.:     0.4031470 α      in ANC's #5, #9, #6, ...

........................................................................
.............................. CYCLE  131 ..............................
........................................................................

 iter      E             dE          RMSdq      gap      omega  full diag
   1    -20.4477287 -0.204477E+02  0.206E-01   12.41       0.0  T
   2    -20.4477379 -0.919356E-05  0.124E-01   12.40       1.0  T
   3    -20.4477409 -0.299761E-05  0.145E-02   12.39       2.0  T
   4    -20.4477412 -0.284534E-06  0.403E-03   12.39       7.2  T
   5    -20.4477412 -0.893627E-08  0.637E-04   12.39      45.3  T
   6    -20.4477412 -0.197641E-09  0.270E-04   12.39     107.0  T
     SCC iter.                  ...        0 min,  0.001 sec
     gradient                   ...        0 min,  0.001 sec
 * total energy  :   -20.3066659 Eh     change        0.1603062E-03 Eh
   gradient norm :     0.0242528 Eh/α   predicted    -0.1211469E-02 (-855.72%)
   displ. norm   :     0.4818809 α      lambda       -0.1361561E-02
   maximum displ.:     0.3877331 α      in ANC's #5, #6, #8, ...

........................................................................
.............................. CYCLE  132 ..............................
........................................................................

 iter      E             dE          RMSdq      gap      omega  full diag
   1    -20.4415604 -0.204416E+02  0.156E-01   12.23       0.0  T
   2    -20.4415651 -0.475800E-05  0.957E-02   12.24       1.0  T
   3    -20.4415672 -0.213596E-05  0.974E-03   12.25       3.0  T
   4    -20.4415674 -0.110379E-06  0.290E-03   12.25       9.9  T
   5    -20.4415674 -0.403198E-08  0.440E-04   12.25      65.6  T
   6    -20.4415674 -0.881997E-10  0.193E-04   12.25     149.6  T
     SCC iter.                  ...        0 min,  0.002 sec
     gradient                   ...        0 min,  0.000 sec
 * total energy  :   -20.3075650 Eh     change       -0.8991606E-03 Eh
   gradient norm :     0.0169472 Eh/α   predicted    -0.8388641E-03 (  -6.71%)
   displ. norm   :     0.2054722 α      lambda       -0.6155178E-03
   maximum displ.:     0.1123360 α      in ANC's #6, #5, #14, ...

........................................................................
.............................. CYCLE  133 ..............................
........................................................................

 iter      E             dE          RMSdq      gap      omega  full diag
   1    -20.4349545 -0.204350E+02  0.107E-01   12.00       0.0  T
   2    -20.4349580 -0.352945E-05  0.644E-02   12.00       1.0  T
   3    -20.4349592 -0.117189E-05  0.924E-03   12.01       3.1  T
   4    -20.4349593 -0.107930E-06  0.251E-03   12.01      11.5  T
   5    -20.4349593 -0.254230E-08  0.287E-04   12.01     100.6  T
   6    -20.4349593 -0.628795E-10  0.125E-04   12.01     231.1  T
     SCC iter.                  ...        0 min,  0.002 sec
     gradient                   ...        0 min,  0.000 sec
 * total energy  :   -20.3077015 Eh     change       -0.1364479E-03 Eh
   gradient norm :     0.0209140 Eh/α   predicted    -0.3207528E-03 ( 135.07%)
   displ. norm   :     0.2325602 α      lambda       -0.5000475E-03
   maximum displ.:     0.1655729 α      in ANC's #5, #10, #6, ...

........................................................................
.............................. CYCLE  134 ..............................
........................................................................

 iter      E             dE          RMSdq      gap      omega  full diag
   1    -20.4387882 -0.204388E+02  0.654E-02   12.11       0.0  T
   2    -20.4387911 -0.298363E-05  0.363E-02   12.10       1.0  T
   3    -20.4387917 -0.564260E-06  0.801E-03   12.09       3.6  T
   4    -20.4387918 -0.589413E-07  0.146E-03   12.10      19.8  T
   5    -20.4387918 -0.979412E-09  0.239E-04   12.10     120.7  T
   6    -20.4387918 -0.347420E-10  0.919E-05   12.10     314.3  T
     SCC iter.                  ...        0 min,  0.002 sec
     gradient                   ...        0 min,  0.001 sec
 * total energy  :   -20.3079688 Eh     change       -0.2672735E-03 Eh
   gradient norm :     0.0105269 Eh/α   predicted    -0.2635451E-03 (  -1.39%)
   displ. norm   :     0.3145383 α      lambda       -0.5578042E-03
   maximum displ.:     0.1778430 α      in ANC's #5, #4, #2, ...

........................................................................
.............................. CYCLE  135 ..............................
........................................................................

 iter      E             dE          RMSdq      gap      omega  full diag
   1    -20.4402656 -0.204403E+02  0.111E-01   12.17       0.0  T
   2    -20.4402697 -0.409414E-05  0.652E-02   12.17       1.0  T
   3    -20.4402706 -0.936083E-06  0.964E-03   12.17       3.0  T
   4    -20.4402708 -0.136541E-06  0.245E-03   12.17      11.8  T
   5    -20.4402708 -0.298228E-08  0.282E-04   12.17     102.5  T
   6    -20.4402708 -0.571845E-10  0.115E-04   12.17     251.8  T
     SCC iter.                  ...        0 min,  0.001 sec
     gradient                   ...        0 min,  0.001 sec
 * total energy  :   -20.3079276 Eh     change        0.4120261E-04 Eh
   gradient norm :     0.0216402 Eh/α   predicted    -0.3064969E-03 (-843.88%)
   displ. norm   :     0.1954200 α      lambda       -0.7974475E-03
   maximum displ.:     0.1009165 α      in ANC's #5, #6, #10, ...

........................................................................
.............................. CYCLE  136 ..............................
........................................................................

 iter      E             dE          RMSdq      gap      omega  full diag
   1    -20.4447664 -0.204448E+02  0.919E-02   12.24       0.0  T
   2    -20.4447695 -0.315165E-05  0.537E-02   12.25       1.0  T
   3    -20.4447702 -0.732340E-06  0.854E-03   12.25       3.4  T
   4    -20.4447703 -0.980554E-07  0.218E-03   12.25      13.3  T
   5    -20.4447703 -0.136205E-08  0.200E-04   12.25     144.4  T
   6    -20.4447703 -0.425082E-10  0.702E-05   12.25     411.2  T
     SCC iter.                  ...        0 min,  0.001 sec
     gradient                   ...        0 min,  0.000 sec
 * total energy  :   -20.3082078 Eh     change       -0.2802237E-03 Eh
   gradient norm :     0.0148668 Eh/α   predicted    -0.4139498E-03 (  47.72%)
   displ. norm   :     0.3448882 α      lambda       -0.7068207E-03
   maximum displ.:     0.2315328 α      in ANC's #5, #6, #8, ...

........................................................................
.............................. CYCLE  137 ..............................
........................................................................

 iter      E             dE          RMSdq      gap      omega  full diag
   1    -20.4391054 -0.204391E+02  0.131E-01   12.09       0.0  T
   2    -20.4391096 -0.420313E-05  0.796E-02   12.09       1.0  T
   3    -20.4391111 -0.143840E-05  0.939E-03   12.10       3.1  T
   4    -20.4391112 -0.117788E-06  0.233E-03   12.10      12.4  T
   5    -20.4391112 -0.182237E-08  0.315E-04   12.10      91.6  T
   6    -20.4391112 -0.325997E-10  0.138E-04   12.10     208.4  T
     SCC iter.                  ...        0 min,  0.002 sec
     gradient                   ...        0 min,  0.001 sec
 * total energy  :   -20.3084986 Eh     change       -0.2907693E-03 Eh
   gradient norm :     0.0136937 Eh/α   predicted    -0.3954524E-03 (  36.00%)
   displ. norm   :     0.2162356 α      lambda       -0.4209617E-03
   maximum displ.:     0.1070836 α      in ANC's #2, #4, #3, ...

........................................................................
.............................. CYCLE  138 ..............................
........................................................................

 iter      E             dE          RMSdq      gap      omega  full diag
   1    -20.4391446 -0.204391E+02  0.579E-02   12.10       0.0  T
   2    -20.4391454 -0.811308E-06  0.348E-02   12.10       1.0  T
   3    -20.4391457 -0.330154E-06  0.441E-03   12.10       6.5  T
   4    -20.4391458 -0.250870E-07  0.140E-03   12.10      20.7  T
   5    -20.4391458 -0.128717E-08  0.191E-04   12.10     151.4  T
   6    -20.4391458 -0.229718E-10  0.743E-05   12.10     388.6  T
     SCC iter.                  ...        0 min,  0.002 sec
     gradient                   ...        0 min,  0.000 sec
 * total energy  :   -20.3088022 Eh     change       -0.3036649E-03 Eh
   gradient norm :     0.0115677 Eh/α   predicted    -0.2203221E-03 ( -27.45%)
   displ. norm   :     0.5047818 α      lambda       -0.7265703E-03
   maximum displ.:     0.2503335 α      in ANC's #4, #2, #10, ...

........................................................................
.............................. CYCLE  139 ..............................
........................................................................

 iter      E             dE          RMSdq      gap      omega  full diag
   1    -20.4417843 -0.204418E+02  0.121E-01   12.17       0.0  T
   2    -20.4417864 -0.204881E-05  0.740E-02   12.17       1.0  T
   3    -20.4417875 -0.114962E-05  0.655E-03   12.19       4.4  T
   4    -20.4417876 -0.440797E-07  0.226E-03   12.19      12.8  T
   5    -20.4417876 -0.377161E-08  0.284E-04   12.19     101.8  T
   6    -20.4417876 -0.581473E-10  0.122E-04   12.19     235.8  T
     SCC iter.                  ...        0 min,  0.002 sec
     gradient                   ...        0 min,  0.001 sec
 * total energy  :   -20.3091670 Eh     change       -0.3648204E-03 Eh
   gradient norm :     0.0165621 Eh/α   predicted    -0.4558535E-03 (  24.95%)
   displ. norm   :     0.4782001 α      lambda       -0.7552036E-03
   maximum displ.:     0.2271020 α      in ANC's #10, #2, #4, ...

........................................................................
.............................. CYCLE  140 ..............................
........................................................................

 iter      E             dE          RMSdq      gap      omega  full diag
   1    -20.4369394 -0.204369E+02  0.144E-01   12.00       0.0  T
   2    -20.4369450 -0.562617E-05  0.872E-02   12.03       1.0  T
   3    -20.4369464 -0.140139E-05  0.107E-02   12.06       2.7  T
   4    -20.4369466 -0.208384E-06  0.275E-03   12.05      10.5  T
   5    -20.4369466 -0.358456E-08  0.358E-04   12.05      80.7  T
   6    -20.4369466 -0.835030E-10  0.152E-04   12.05     189.4  T
     SCC iter.                  ...        0 min,  0.002 sec
     gradient                   ...        0 min,  0.002 sec
 * total energy  :   -20.3095282 Eh     change       -0.3611689E-03 Eh
   gradient norm :     0.0179976 Eh/α   predicted    -0.4639462E-03 (  28.46%)
   displ. norm   :     0.1689041 α      lambda       -0.7509923E-03
   maximum displ.:     0.0894696 α      in ANC's #15, #13, #7, ...

........................................................................
.............................. CYCLE  141 ..............................
........................................................................

 iter      E             dE          RMSdq      gap      omega  full diag
   1    -20.4415762 -0.204416E+02  0.108E-01   12.15       0.0  T
   2    -20.4415800 -0.380102E-05  0.644E-02   12.16       1.0  T
   3    -20.4415815 -0.149043E-05  0.948E-03   12.16       3.0  T
   4    -20.4415816 -0.112613E-06  0.306E-03   12.16       9.4  T
   5    -20.4415816 -0.525164E-08  0.367E-04   12.16      78.6  T
   6    -20.4415816 -0.107892E-09  0.149E-04   12.16     193.9  T
     SCC iter.                  ...        0 min,  0.002 sec
     gradient                   ...        0 min,  0.001 sec
 * total energy  :   -20.3095768 Eh     change       -0.4856449E-04 Eh
   gradient norm :     0.0224358 Eh/α   predicted    -0.3862083E-03 ( 695.25%)
   displ. norm   :     0.1368128 α      lambda       -0.7376556E-03
   maximum displ.:     0.0599232 α      in ANC's #14, #12, #10, ...

........................................................................
.............................. CYCLE  142 ..............................
........................................................................

 iter      E             dE          RMSdq      gap      omega  full diag
   1    -20.4405510 -0.204406E+02  0.867E-02   12.16       0.0  T
   2    -20.4405530 -0.206666E-05  0.529E-02   12.17       1.0  T
   3    -20.4405541 -0.103876E-05  0.695E-03   12.17       4.2  T
   4    -20.4405541 -0.464363E-07  0.216E-03   12.17      13.4  T
   5    -20.4405541 -0.234949E-08  0.233E-04   12.17     123.6  T
   6    -20.4405541 -0.409237E-10  0.106E-04   12.17     271.3  T
     SCC iter.                  ...        0 min,  0.002 sec
     gradient                   ...        0 min,  0.000 sec
 * total energy  :   -20.3099532 Eh     change       -0.3764638E-03 Eh
   gradient norm :     0.0161128 Eh/α   predicted    -0.3757293E-03 (  -0.20%)
   displ. norm   :     0.2204952 α      lambda       -0.5380260E-03
   maximum displ.:     0.1007427 α      in ANC's #8, #5, #9, ...

........................................................................
.............................. CYCLE  143 ..............................
........................................................................

 iter      E             dE          RMSdq      gap      omega  full diag
   1    -20.4385081 -0.204385E+02  0.105E-01   12.17       0.0  T
   2    -20.4385112 -0.317841E-05  0.632E-02   12.17       1.0  T
   3    -20.4385125 -0.123997E-05  0.862E-03   12.17       3.3  T
   4    -20.4385126 -0.922464E-07  0.275E-03   12.17      10.5  T
   5    -20.4385126 -0.426022E-08  0.368E-04   12.17      78.5  T
   6    -20.4385126 -0.104869E-09  0.144E-04   12.17     200.1  T
     SCC iter.                  ...        0 min,  0.002 sec
     gradient                   ...        0 min,  0.001 sec
 * total energy  :   -20.3099361 Eh     change        0.1710735E-04 Eh
   gradient norm :     0.0177668 Eh/α   predicted    -0.2820934E-03 (*******%)
   displ. norm   :     0.1066695 α      lambda       -0.5906430E-03
   maximum displ.:     0.0576547 α      in ANC's #8, #2, #6, ...

........................................................................
.............................. CYCLE  144 ..............................
........................................................................

 iter      E             dE          RMSdq      gap      omega  full diag
   1    -20.4405670 -0.204406E+02  0.615E-02   12.18       0.0  T
   2    -20.4405680 -0.911375E-06  0.370E-02   12.18       1.0  T
   3    -20.4405683 -0.363657E-06  0.462E-03   12.17       6.2  T
   4    -20.4405683 -0.262417E-07  0.151E-03   12.18      19.1  T
   5    -20.4405683 -0.117699E-08  0.171E-04   12.17     169.2  T
   6    -20.4405683 -0.221618E-10  0.721E-05   12.17     400.5  T
     SCC iter.                  ...        0 min,  0.000 sec
     gradient                   ...        0 min,  0.002 sec
 * total energy  :   -20.3103048 Eh     change       -0.3686759E-03 Eh
   gradient norm :     0.0099879 Eh/α   predicted    -0.2986813E-03 ( -18.99%)
   displ. norm   :     0.2702375 α      lambda       -0.4170329E-03
   maximum displ.:     0.1493651 α      in ANC's #2, #1, #3, ...

........................................................................
.............................. CYCLE  145 ..............................
........................................................................

 iter      E             dE          RMSdq      gap      omega  full diag
   1    -20.4382531 -0.204383E+02  0.111E-01   12.06       0.0  T
   2    -20.4382556 -0.243394E-05  0.678E-02   12.06       1.0  T
   3    -20.4382567 -0.112869E-05  0.721E-03   12.06       4.0  T
   4    -20.4382568 -0.585910E-07  0.225E-03   12.06      12.8  T
   5    -20.4382568 -0.265643E-08  0.320E-04   12.06      90.2  T
   6    -20.4382568 -0.759925E-10  0.130E-04   12.06     222.7  T
     SCC iter.                  ...        0 min,  0.001 sec
     gradient                   ...        0 min,  0.001 sec
 * total energy  :   -20.3104662 Eh     change       -0.1613741E-03 Eh
   gradient norm :     0.0203937 Eh/α   predicted    -0.2237473E-03 (  38.65%)
   displ. norm   :     0.2087246 α      lambda       -0.5744529E-03
   maximum displ.:     0.1014467 α      in ANC's #1, #2, #6, ...

........................................................................
.............................. CYCLE  146 ..............................
........................................................................

 iter      E             dE          RMSdq      gap      omega  full diag
   1    -20.4422737 -0.204423E+02  0.653E-02   12.20       0.0  T
   2    -20.4422747 -0.975311E-06  0.391E-02   12.19       1.0  T
   3    -20.4422749 -0.240891E-06  0.452E-03   12.18       6.4  T
   4    -20.4422749 -0.350768E-07  0.118E-03   12.19      24.5  T
   5    -20.4422749 -0.559872E-09  0.129E-04   12.19     224.5  T
   6    -20.4422749 -0.127045E-10  0.522E-05   12.19     553.2  T
     SCC iter.                  ...        0 min,  0.002 sec
     gradient                   ...        0 min,  0.000 sec
 * total energy  :   -20.3108435 Eh     change       -0.3773168E-03 Eh
   gradient norm :     0.0125028 Eh/α   predicted    -0.2997436E-03 ( -20.56%)
   displ. norm   :     0.4576443 α      lambda       -0.6731703E-03
   maximum displ.:     0.2491491 α      in ANC's #2, #1, #3, ...

........................................................................
.............................. CYCLE  147 ..............................
........................................................................

 iter      E             dE          RMSdq      gap      omega  full diag
   1    -20.4410470 -0.204410E+02  0.147E-01   12.14       0.0  T
   2    -20.4410519 -0.489779E-05  0.891E-02   12.13       1.0  T
   3    -20.4410533 -0.143058E-05  0.988E-03   12.12       2.9  T
   4    -20.4410535 -0.175713E-06  0.279E-03   12.12      10.4  T
   5    -20.4410535 -0.400124E-08  0.356E-04   12.12      81.0  T
   6    -20.4410535 -0.942997E-10  0.150E-04   12.12     191.8  T
     SCC iter.                  ...        0 min,  0.001 sec
     gradient                   ...        0 min,  0.001 sec
 * total energy  :   -20.3112765 Eh     change       -0.4330097E-03 Eh
   gradient norm :     0.0159222 Eh/α   predicted    -0.4070881E-03 (  -5.99%)
   displ. norm   :     0.4111839 α      lambda       -0.7551246E-03
   maximum displ.:     0.2263856 α      in ANC's #2, #1, #3, ...

........................................................................
.............................. CYCLE  148 ..............................
........................................................................

 iter      E             dE          RMSdq      gap      omega  full diag
   1    -20.4410807 -0.204411E+02  0.141E-01   12.16       0.0  T
   2    -20.4410839 -0.324611E-05  0.862E-02   12.16       1.0  T
   3    -20.4410853 -0.142180E-05  0.824E-03   12.17       3.5  T
   4    -20.4410854 -0.897258E-07  0.266E-03   12.16      10.8  T
   5    -20.4410854 -0.453525E-08  0.366E-04   12.16      78.9  T
   6    -20.4410854 -0.122132E-09  0.151E-04   12.16     191.5  T
     SCC iter.                  ...        0 min,  0.003 sec
     gradient                   ...        0 min,  0.001 sec
 * total energy  :   -20.3116146 Eh     change       -0.3380691E-03 Eh
   gradient norm :     0.0152767 Eh/α   predicted    -0.4413962E-03 (  30.56%)
   displ. norm   :     0.3634200 α      lambda       -0.6101549E-03
   maximum displ.:     0.1833659 α      in ANC's #2, #5, #1, ...

........................................................................
.............................. CYCLE  149 ..............................
........................................................................

 iter      E             dE          RMSdq      gap      omega  full diag
   1    -20.4406546 -0.204407E+02  0.118E-01   12.14       0.0  T
   2    -20.4406592 -0.467069E-05  0.724E-02   12.14       1.0  T
   3    -20.4406606 -0.137629E-05  0.958E-03   12.12       3.0  T
   4    -20.4406608 -0.158222E-06  0.265E-03   12.13      10.9  T
   5    -20.4406608 -0.276829E-08  0.351E-04   12.13      82.2  T
   6    -20.4406608 -0.808633E-10  0.148E-04   12.13     194.8  T
     SCC iter.                  ...        0 min,  0.003 sec
     gradient                   ...        0 min,  0.001 sec
 * total energy  :   -20.3119234 Eh     change       -0.3087782E-03 Eh
   gradient norm :     0.0167564 Eh/α   predicted    -0.3453735E-03 (  11.85%)
   displ. norm   :     0.1519259 α      lambda       -0.6049154E-03
   maximum displ.:     0.0715820 α      in ANC's #2, #11, #8, ...

........................................................................
.............................. CYCLE  150 ..............................
........................................................................

 iter      E             dE          RMSdq      gap      omega  full diag
   1    -20.4486006 -0.204486E+02  0.970E-02   12.32       0.0  T
   2    -20.4486047 -0.405277E-05  0.565E-02   12.31       1.0  T
   3    -20.4486057 -0.100553E-05  0.974E-03   12.30       3.0  T
   4    -20.4486058 -0.119707E-06  0.232E-03   12.31      12.4  T
   5    -20.4486058 -0.199138E-08  0.240E-04   12.31     120.2  T
   6    -20.4486058 -0.424798E-10  0.963E-05   12.31     299.8  T
     SCC iter.                  ...        0 min,  0.002 sec
     gradient                   ...        0 min,  0.001 sec
 * total energy  :   -20.3120033 Eh     change       -0.7997003E-04 Eh
   gradient norm :     0.0186747 Eh/α   predicted    -0.3094410E-03 ( 286.95%)
   displ. norm   :     0.4011129 α      lambda       -0.9066556E-03
   maximum displ.:     0.2481129 α      in ANC's #2, #9, #1, ...
 * RMSD in coord.:     1.4958325 α      energy gain  -0.1067854E-01 Eh

generating ANC from exact Hessian ...
Using Lindh-Hessian (1995)
 Shifting diagonal of input Hessian by   1.030107573115892E-002
 Lowest  eigenvalues of input Hessian
    0.010000    0.000000    0.000000    0.000000    0.000000    0.000000
    0.000000    0.010557    0.010643    0.010844    0.011271    0.011721
    0.012593    0.013331    0.013926    0.015100    0.015925    0.016249
 Highest eigenvalues
    1.193932    1.201543    1.389461    1.419432    1.431938    1.447166
 

........................................................................
.............................. CYCLE  151 ..............................
........................................................................

 iter      E             dE          RMSdq      gap      omega  full diag
   1    -20.4403455 -0.204403E+02  0.173E-01   11.89       0.0  T
   2    -20.4403501 -0.456874E-05  0.105E-01   11.89       1.0  T
   3    -20.4403522 -0.215757E-05  0.101E-02   11.87       2.9  T
   4    -20.4403523 -0.120589E-06  0.350E-03   11.87       8.3  T
   5    -20.4403523 -0.778272E-08  0.381E-04   11.87      75.8  T
   6    -20.4403523 -0.127088E-09  0.170E-04   11.87     169.3  T
     SCC iter.                  ...        0 min,  0.002 sec
     gradient                   ...        0 min,  0.001 sec
 * total energy  :   -20.3119708 Eh     change        0.3252651E-04 Eh
   gradient norm :     0.0265185 Eh/α   predicted     0.0000000E+00 (-100.00%)
   displ. norm   :     0.1897985 α      lambda       -0.1225283E-02
   maximum displ.:     0.0939788 α      in ANC's #9, #3, #2, ...

........................................................................
.............................. CYCLE  152 ..............................
........................................................................

 iter      E             dE          RMSdq      gap      omega  full diag
   1    -20.4424868 -0.204425E+02  0.158E-01   12.00       0.0  T
   2    -20.4424905 -0.375238E-05  0.980E-02   12.01       1.0  T
   3    -20.4424925 -0.195322E-05  0.719E-03   12.01       4.0  T
   4    -20.4424926 -0.497833E-07  0.206E-03   12.01      14.0  T
   5    -20.4424926 -0.127984E-08  0.210E-04   12.01     137.8  T
   6    -20.4424926 -0.239346E-10  0.882E-05   12.01     327.4  T
     SCC iter.                  ...        0 min,  0.001 sec
     gradient                   ...        0 min,  0.000 sec
 * total energy  :   -20.3127973 Eh     change       -0.8265395E-03 Eh
   gradient norm :     0.0096459 Eh/α   predicted    -0.6347150E-03 ( -23.21%)
   displ. norm   :     0.2018604 α      lambda       -0.5932156E-03
   maximum displ.:     0.1048950 α      in ANC's #6, #3, #9, ...

........................................................................
.............................. CYCLE  153 ..............................
........................................................................

 iter      E             dE          RMSdq      gap      omega  full diag
   1    -20.4444866 -0.204445E+02  0.970E-02   12.11       0.0  T
   2    -20.4444877 -0.104125E-05  0.593E-02   12.10       1.0  T
   3    -20.4444882 -0.540287E-06  0.454E-03   12.09       6.4  T
   4    -20.4444882 -0.175423E-07  0.134E-03   12.10      21.6  T
   5    -20.4444882 -0.106018E-08  0.210E-04   12.10     137.2  T
   6    -20.4444882 -0.299742E-10  0.890E-05   12.10     324.2  T
     SCC iter.                  ...        0 min,  0.001 sec
     gradient                   ...        0 min,  0.001 sec
 * total energy  :   -20.3131713 Eh     change       -0.3739137E-03 Eh
   gradient norm :     0.0099439 Eh/α   predicted    -0.3086952E-03 ( -17.44%)
   displ. norm   :     0.2287129 α      lambda       -0.3454351E-03
   maximum displ.:     0.1285133 α      in ANC's #6, #3, #7, ...

........................................................................
.............................. CYCLE  154 ..............................
........................................................................

 iter      E             dE          RMSdq      gap      omega  full diag
   1    -20.4437985 -0.204438E+02  0.991E-02   12.08       0.0  T
   2    -20.4437995 -0.932382E-06  0.611E-02   12.08       1.0  T
   3    -20.4438000 -0.517053E-06  0.387E-03   12.08       7.5  T
   4    -20.4438000 -0.102377E-07  0.113E-03   12.07      25.5  T
   5    -20.4438000 -0.557176E-09  0.153E-04   12.07     188.5  T
   6    -20.4438000 -0.173408E-10  0.616E-05   12.07     468.8  T
     SCC iter.                  ...        0 min,  0.001 sec
     gradient                   ...        0 min,  0.001 sec
 * total energy  :   -20.3134544 Eh     change       -0.2831088E-03 Eh
   gradient norm :     0.0124650 Eh/α   predicted    -0.1817525E-03 ( -35.80%)
   displ. norm   :     0.4956291 α      lambda       -0.7415757E-03
   maximum displ.:     0.2841526 α      in ANC's #6, #3, #7, ...

........................................................................
.............................. CYCLE  155 ..............................
........................................................................

 iter      E             dE          RMSdq      gap      omega  full diag
   1    -20.4434681 -0.204435E+02  0.157E-01   12.00       0.0  T
   2    -20.4434716 -0.358366E-05  0.950E-02   11.98       1.0  T
   3    -20.4434727 -0.102696E-05  0.851E-03   11.96       3.4  T
   4    -20.4434728 -0.122489E-06  0.228E-03   11.97      12.7  T
   5    -20.4434728 -0.159914E-08  0.270E-04   11.97     106.9  T
   6    -20.4434728 -0.311893E-10  0.112E-04   11.97     257.1  T
     SCC iter.                  ...        0 min,  0.002 sec
     gradient                   ...        0 min,  0.000 sec
 * total energy  :   -20.3137855 Eh     change       -0.3311162E-03 Eh
   gradient norm :     0.0198405 Eh/α   predicted    -0.4618578E-03 (  39.49%)
   displ. norm   :     0.3264175 α      lambda       -0.7907854E-03
   maximum displ.:     0.2215560 α      in ANC's #3, #6, #10, ...

........................................................................
.............................. CYCLE  156 ..............................
........................................................................

 iter      E             dE          RMSdq      gap      omega  full diag
   1    -20.4411655 -0.204412E+02  0.141E-01   11.91       0.0  T
   2    -20.4411693 -0.380166E-05  0.864E-02   11.92       1.0  T
   3    -20.4411709 -0.162054E-05  0.807E-03   11.92       3.6  T
   4    -20.4411710 -0.849093E-07  0.235E-03   11.92      12.3  T
   5    -20.4411710 -0.121168E-08  0.233E-04   11.92     123.8  T
   6    -20.4411710 -0.358433E-10  0.100E-04   11.92     288.8  T
     SCC iter.                  ...        0 min,  0.002 sec
     gradient                   ...        0 min,  0.002 sec
 * total energy  :   -20.3142104 Eh     change       -0.4248811E-03 Eh
   gradient norm :     0.0200267 Eh/α   predicted    -0.4375183E-03 (   2.97%)
   displ. norm   :     0.2631696 α      lambda       -0.1018163E-02
   maximum displ.:     0.1137201 α      in ANC's #3, #10, #8, ...

........................................................................
.............................. CYCLE  157 ..............................
........................................................................

 iter      E             dE          RMSdq      gap      omega  full diag
   1    -20.4472997 -0.204473E+02  0.121E-01   12.12       0.0  T
   2    -20.4473058 -0.613935E-05  0.710E-02   12.10       1.0  T
   3    -20.4473073 -0.145630E-05  0.122E-02   12.08       2.4  T
   4    -20.4473075 -0.194371E-06  0.274E-03   12.09      10.5  T
   5    -20.4473075 -0.271937E-08  0.273E-04   12.09     105.7  T
   6    -20.4473075 -0.647020E-10  0.109E-04   12.09     264.2  T
     SCC iter.                  ...        0 min,  0.002 sec
     gradient                   ...        0 min,  0.001 sec
 * total energy  :   -20.3145671 Eh     change       -0.3567360E-03 Eh
   gradient norm :     0.0198662 Eh/α   predicted    -0.5443415E-03 (  52.59%)
   displ. norm   :     0.4103572 α      lambda       -0.9833779E-03
   maximum displ.:     0.2143080 α      in ANC's #6, #3, #13, ...

........................................................................
.............................. CYCLE  158 ..............................
........................................................................

 iter      E             dE          RMSdq      gap      omega  full diag
   1    -20.4444211 -0.204444E+02  0.142E-01   11.98       0.0  T
   2    -20.4444246 -0.353706E-05  0.862E-02   11.96       1.0  T
   3    -20.4444257 -0.108323E-05  0.832E-03   11.94       3.5  T
   4    -20.4444258 -0.117151E-06  0.213E-03   11.95      13.5  T
   5    -20.4444258 -0.950834E-09  0.198E-04   11.95     145.6  T
   6    -20.4444258 -0.288018E-10  0.746E-05   11.95     387.1  T
     SCC iter.                  ...        0 min,  0.001 sec
     gradient                   ...        0 min,  0.002 sec
 * total energy  :   -20.3153930 Eh     change       -0.8259028E-03 Eh
   gradient norm :     0.0123054 Eh/α   predicted    -0.5744856E-03 ( -30.44%)
   displ. norm   :     0.6475972 α      lambda       -0.1386392E-02
   maximum displ.:     0.3246127 α      in ANC's #6, #3, #10, ...

........................................................................
.............................. CYCLE  159 ..............................
........................................................................

 iter      E             dE          RMSdq      gap      omega  full diag
   1    -20.4430982 -0.204431E+02  0.195E-01   11.79       0.0  T
   2    -20.4431069 -0.868779E-05  0.117E-01   11.76       1.0  T
   3    -20.4431092 -0.228760E-05  0.137E-02   11.74       2.1  T
   4    -20.4431095 -0.293915E-06  0.336E-03   11.74       8.6  T
   5    -20.4431095 -0.406561E-08  0.469E-04   11.74      61.5  T
   6    -20.4431095 -0.186656E-09  0.157E-04   11.74     184.1  T
     SCC iter.                  ...        0 min,  0.001 sec
     gradient                   ...        0 min,  0.001 sec
 * total energy  :   -20.3156192 Eh     change       -0.2261551E-03 Eh
   gradient norm :     0.0333465 Eh/α   predicted    -0.9839209E-03 ( 335.06%)
   displ. norm   :     0.2858371 α      lambda       -0.1725832E-02
   maximum displ.:     0.1351493 α      in ANC's #6, #9, #3, ...

........................................................................
.............................. CYCLE  160 ..............................
........................................................................

 iter      E             dE          RMSdq      gap      omega  full diag
   1    -20.4368009 -0.204368E+02  0.152E-01   11.73       0.0  T
   2    -20.4368075 -0.665970E-05  0.921E-02   11.72       1.0  T
   3    -20.4368100 -0.241360E-05  0.122E-02   11.71       2.4  T
   4    -20.4368101 -0.193826E-06  0.337E-03   11.71       8.6  T
   5    -20.4368101 -0.380536E-08  0.350E-04   11.71      82.5  T
   6    -20.4368101 -0.115591E-09  0.153E-04   11.71     188.7  T
     SCC iter.                  ...        0 min,  0.001 sec
     gradient                   ...        0 min,  0.000 sec
 * total energy  :   -20.3162713 Eh     change       -0.6521199E-03 Eh
   gradient norm :     0.0311436 Eh/α   predicted    -0.9334201E-03 (  43.14%)
   displ. norm   :     0.4454406 α      lambda       -0.3645491E-02
   maximum displ.:     0.2198426 α      in ANC's #11, #3, #7, ...

........................................................................
.............................. CYCLE  161 ..............................
........................................................................

 iter      E             dE          RMSdq      gap      omega  full diag
   1    -20.4569340 -0.204569E+02  0.322E-01   12.23       0.0  T
   2    -20.4569718 -0.378709E-04  0.189E-01   12.21       1.0  T
   3    -20.4569807 -0.885779E-05  0.287E-02   12.20       1.0  T
   4    -20.4569819 -0.119939E-05  0.702E-03   12.21       4.1  T
   5    -20.4569819 -0.202748E-07  0.118E-03   12.21      24.4  T
   6    -20.4569819 -0.108504E-08  0.306E-04   12.21      94.4  T
   7    -20.4569819 -0.116081E-09  0.935E-05   12.21     308.8  T
     SCC iter.                  ...        0 min,  0.002 sec
     gradient                   ...        0 min,  0.001 sec
 * total energy  :   -20.3133746 Eh     change        0.2896694E-02 Eh
   gradient norm :     0.0766657 Eh/α   predicted    -0.2184408E-02 (-175.41%)
   displ. norm   :     0.2584342 α      lambda       -0.7391783E-02
   maximum displ.:     0.1391668 α      in ANC's #9, #12, #17, ...

........................................................................
.............................. CYCLE  162 ..............................
........................................................................

 iter      E             dE          RMSdq      gap      omega  full diag
   1    -20.4520779 -0.204521E+02  0.269E-01   12.15       0.0  T
   2    -20.4521102 -0.323344E-04  0.159E-01   12.15       1.0  T
   3    -20.4521190 -0.878457E-05  0.278E-02   12.16       1.0  T
   4    -20.4521200 -0.100850E-05  0.684E-03   12.16       4.2  T
   5    -20.4521200 -0.168764E-07  0.688E-04   12.16      42.0  T
   6    -20.4521200 -0.446978E-09  0.292E-04   12.16      98.9  T
     SCC iter.                  ...        0 min,  0.002 sec
     gradient                   ...        0 min,  0.001 sec
 * total energy  :   -20.3166911 Eh     change       -0.3316558E-02 Eh
   gradient norm :     0.0371881 Eh/α   predicted    -0.3942728E-02 (  18.88%)
   displ. norm   :     0.4917230 α      lambda       -0.4677374E-02
   maximum displ.:     0.2502045 α      in ANC's #12, #13, #6, ...

........................................................................
.............................. CYCLE  163 ..............................
........................................................................

 iter      E             dE          RMSdq      gap      omega  full diag
   1    -20.4364144 -0.204364E+02  0.326E-01   11.51       0.0  T
   2    -20.4364365 -0.220726E-04  0.196E-01   11.50       1.0  T
   3    -20.4364457 -0.925074E-05  0.222E-02   11.49       1.3  T
   4    -20.4364463 -0.605273E-06  0.761E-03   11.48       3.8  T
   5    -20.4364464 -0.338827E-07  0.966E-04   11.48      29.9  T
   6    -20.4364464 -0.818215E-09  0.404E-04   11.48      71.4  T
     SCC iter.                  ...        0 min,  0.001 sec
     gradient                   ...        0 min,  0.001 sec
 * total energy  :   -20.3147960 Eh     change        0.1895114E-02 Eh
   gradient norm :     0.0697649 Eh/α   predicted    -0.2904144E-02 (-253.24%)
   displ. norm   :     0.2883531 α      lambda       -0.8422753E-02
   maximum displ.:     0.1532112 α      in ANC's #17, #8, #12, ...

........................................................................
.............................. CYCLE  164 ..............................
........................................................................

 iter      E             dE          RMSdq      gap      omega  full diag
   1    -20.4382789 -0.204383E+02  0.249E-01   11.78       0.0  T
   2    -20.4382991 -0.201957E-04  0.151E-01   11.81       1.0  T
   3    -20.4383079 -0.884059E-05  0.211E-02   11.83       1.4  T
   4    -20.4383085 -0.535901E-06  0.734E-03   11.83       3.9  T
   5    -20.4383085 -0.331637E-07  0.879E-04   11.83      32.8  T
   6    -20.4383085 -0.709065E-09  0.383E-04   11.83      75.3  T
     SCC iter.                  ...        0 min,  0.001 sec
     gradient                   ...        0 min,  0.001 sec
 * total energy  :   -20.3179086 Eh     change       -0.3112605E-02 Eh
   gradient norm :     0.0413802 Eh/α   predicted    -0.4561538E-02 (  46.55%)
   displ. norm   :     0.3859080 α      lambda       -0.5505404E-02
   maximum displ.:     0.1585254 α      in ANC's #13, #11, #3, ...

........................................................................
.............................. CYCLE  165 ..............................
........................................................................

 iter      E             dE          RMSdq      gap      omega  full diag
   1    -20.4598247 -0.204598E+02  0.345E-01   12.59       0.0  T
   2    -20.4598613 -0.365981E-04  0.209E-01   12.55       1.0  T
   3    -20.4598770 -0.157840E-04  0.284E-02   12.54       1.0  T
   4    -20.4598780 -0.951342E-06  0.823E-03   12.56       3.5  T
   5    -20.4598780 -0.324182E-07  0.110E-03   12.55      26.2  T
   6    -20.4598780 -0.868631E-09  0.435E-04   12.55      66.4  T
   7    -20.4598780 -0.224201E-09  0.854E-05   12.55     337.8  T
     SCC iter.                  ...        0 min,  0.002 sec
     gradient                   ...        0 min,  0.001 sec
 * total energy  :   -20.3148426 Eh     change        0.3065998E-02 Eh
   gradient norm :     0.0772021 Eh/α   predicted    -0.3162646E-02 (-203.15%)
   displ. norm   :     0.2909088 α      lambda       -0.8260584E-02
   maximum displ.:     0.1836940 α      in ANC's #5, #3, #13, ...

........................................................................
.............................. CYCLE  166 ..............................
........................................................................

 iter      E             dE          RMSdq      gap      omega  full diag
   1    -20.4509240 -0.204509E+02  0.236E-01   12.19       0.0  T
   2    -20.4509400 -0.159789E-04  0.145E-01   12.18       1.0  T
   3    -20.4509496 -0.962415E-05  0.190E-02   12.17       1.5  T
   4    -20.4509499 -0.296870E-06  0.532E-03   12.16       5.4  T
   5    -20.4509499 -0.235269E-07  0.835E-04   12.16      34.6  T
   6    -20.4509499 -0.710536E-09  0.321E-04   12.16      89.9  T
     SCC iter.                  ...        0 min,  0.001 sec
     gradient                   ...        0 min,  0.001 sec
 * total energy  :   -20.3188862 Eh     change       -0.4043546E-02 Eh
   gradient norm :     0.0323681 Eh/α   predicted    -0.4479831E-02 (  10.79%)
   displ. norm   :     0.5279436 α      lambda       -0.4629468E-02
   maximum displ.:     0.2703149 α      in ANC's #13, #6, #12, ...

........................................................................
.............................. CYCLE  167 ..............................
........................................................................

 iter      E             dE          RMSdq      gap      omega  full diag
   1    -20.4279761 -0.204280E+02  0.317E-01   11.53       0.0  T
   2    -20.4280084 -0.322921E-04  0.191E-01   11.58       1.0  T
   3    -20.4280204 -0.119990E-04  0.270E-02   11.58       1.1  T
   4    -20.4280214 -0.100679E-05  0.857E-03   11.58       3.4  T
   5    -20.4280214 -0.360976E-07  0.895E-04   11.58      32.3  T
   6    -20.4280214 -0.949239E-09  0.378E-04   11.58      76.3  T
     SCC iter.                  ...        0 min,  0.001 sec
     gradient                   ...        0 min,  0.002 sec
 * total energy  :   -20.3169989 Eh     change        0.1887299E-02 Eh
   gradient norm :     0.0683970 Eh/α   predicted    -0.2959909E-02 (-256.83%)
   displ. norm   :     0.2928469 α      lambda       -0.7343564E-02
   maximum displ.:     0.1621508 α      in ANC's #2, #10, #13, ...

........................................................................
.............................. CYCLE  168 ..............................
........................................................................

 iter      E             dE          RMSdq      gap      omega  full diag
   1    -20.4452892 -0.204453E+02  0.211E-01   12.16       0.0  T
   2    -20.4453098 -0.205791E-04  0.124E-01   12.12       1.0  T
   3    -20.4453159 -0.604696E-05  0.222E-02   12.09       1.3  T
   4    -20.4453165 -0.656940E-06  0.583E-03   12.10       5.0  T
   5    -20.4453165 -0.153761E-07  0.637E-04   12.10      45.3  T
   6    -20.4453165 -0.445006E-09  0.229E-04   12.10     126.2  T
     SCC iter.                  ...        0 min,  0.002 sec
     gradient                   ...        0 min,  0.000 sec
 * total energy  :   -20.3206994 Eh     change       -0.3700495E-02 Eh
   gradient norm :     0.0173979 Eh/α   predicted    -0.3986662E-02 (   7.73%)
   displ. norm   :     0.4885086 α      lambda       -0.1209572E-02
   maximum displ.:     0.2292130 α      in ANC's #6, #10, #11, ...

........................................................................
.............................. CYCLE  169 ..............................
........................................................................

 iter      E             dE          RMSdq      gap      omega  full diag
   1    -20.4466223 -0.204466E+02  0.919E-02   12.18       0.0  T
   2    -20.4466268 -0.457384E-05  0.552E-02   12.18       1.0  T
   3    -20.4466280 -0.111408E-05  0.100E-02   12.18       2.9  T
   4    -20.4466281 -0.137675E-06  0.222E-03   12.18      13.0  T
   5    -20.4466281 -0.154573E-08  0.250E-04   12.18     115.5  T
   6    -20.4466281 -0.405436E-10  0.112E-04   12.18     258.6  T
     SCC iter.                  ...        0 min,  0.001 sec
     gradient                   ...        0 min,  0.001 sec
 * total energy  :   -20.3214586 Eh     change       -0.7592100E-03 Eh
   gradient norm :     0.0178414 Eh/α   predicted    -0.7491160E-03 (  -1.33%)
   displ. norm   :     0.5048669 α      lambda       -0.1693803E-02
   maximum displ.:     0.2911347 α      in ANC's #11, #6, #12, ...

........................................................................
.............................. CYCLE  170 ..............................
........................................................................

 iter      E             dE          RMSdq      gap      omega  full diag
   1    -20.4491392 -0.204491E+02  0.162E-01   12.30       0.0  T
   2    -20.4491609 -0.216813E-04  0.929E-02   12.27       1.0  T
   3    -20.4491642 -0.335254E-05  0.217E-02   12.26       1.3  T
   4    -20.4491647 -0.491268E-06  0.381E-03   12.26       7.6  T
   5    -20.4491647 -0.712380E-08  0.526E-04   12.26      54.9  T
   6    -20.4491647 -0.195481E-09  0.234E-04   12.26     123.6  T
     SCC iter.                  ...        0 min,  0.001 sec
     gradient                   ...        0 min,  0.002 sec
 * total energy  :   -20.3220004 Eh     change       -0.5418590E-03 Eh
   gradient norm :     0.0244580 Eh/α   predicted    -0.1062766E-02 (  96.13%)
   displ. norm   :     0.4024583 α      lambda       -0.1769516E-02
   maximum displ.:     0.2345658 α      in ANC's #6, #10, #17, ...

........................................................................
.............................. CYCLE  171 ..............................
........................................................................

 iter      E             dE          RMSdq      gap      omega  full diag
   1    -20.4500439 -0.204500E+02  0.130E-01   12.29       0.0  T
   2    -20.4500527 -0.888116E-05  0.785E-02   12.32       1.0  T
   3    -20.4500549 -0.211562E-05  0.129E-02   12.33       2.2  T
   4    -20.4500551 -0.280028E-06  0.340E-03   12.33       8.5  T
   5    -20.4500552 -0.515777E-08  0.336E-04   12.33      86.0  T
   6    -20.4500552 -0.923386E-10  0.159E-04   12.33     181.1  T
     SCC iter.                  ...        0 min,  0.002 sec
     gradient                   ...        0 min,  0.001 sec
 * total energy  :   -20.3224595 Eh     change       -0.4590672E-03 Eh
   gradient norm :     0.0189876 Eh/α   predicted    -0.1028071E-02 ( 123.95%)
   displ. norm   :     0.1763581 α      lambda       -0.8551803E-03
   maximum displ.:     0.0900672 α      in ANC's #6, #1, #5, ...

........................................................................
.............................. CYCLE  172 ..............................
........................................................................

 iter      E             dE          RMSdq      gap      omega  full diag
   1    -20.4432835 -0.204433E+02  0.110E-01   12.18       0.0  T
   2    -20.4432876 -0.412519E-05  0.661E-02   12.19       1.0  T
   3    -20.4432889 -0.126928E-05  0.945E-03   12.20       3.1  T
   4    -20.4432890 -0.122269E-06  0.243E-03   12.20      11.9  T
   5    -20.4432890 -0.173001E-08  0.299E-04   12.20      96.6  T
   6    -20.4432890 -0.881073E-10  0.108E-04   12.20     267.1  T
     SCC iter.                  ...        0 min,  0.002 sec
     gradient                   ...        0 min,  0.001 sec
 * total energy  :   -20.3226375 Eh     change       -0.1779543E-03 Eh
   gradient norm :     0.0232925 Eh/α   predicted    -0.4408892E-03 ( 147.75%)
   displ. norm   :     0.3007724 α      lambda       -0.9984489E-03
   maximum displ.:     0.1975348 α      in ANC's #6, #3, #13, ...

........................................................................
.............................. CYCLE  173 ..............................
........................................................................

 iter      E             dE          RMSdq      gap      omega  full diag
   1    -20.4509848 -0.204510E+02  0.134E-01   12.45       0.0  T
   2    -20.4509910 -0.613619E-05  0.817E-02   12.44       1.0  T
   3    -20.4509930 -0.205087E-05  0.110E-02   12.41       2.6  T
   4    -20.4509932 -0.174169E-06  0.345E-03   12.42       8.4  T
   5    -20.4509932 -0.509404E-08  0.383E-04   12.42      75.3  T
   6    -20.4509932 -0.699636E-10  0.177E-04   12.42     163.4  T
     SCC iter.                  ...        0 min,  0.001 sec
     gradient                   ...        0 min,  0.000 sec
 * total energy  :   -20.3222414 Eh     change        0.3961111E-03 Eh
   gradient norm :     0.0243261 Eh/α   predicted    -0.5443842E-03 (-237.43%)
   displ. norm   :     0.1914696 α      lambda       -0.1445071E-02
   maximum displ.:     0.0872650 α      in ANC's #13, #6, #2, ...

........................................................................
.............................. CYCLE  174 ..............................
........................................................................

 iter      E             dE          RMSdq      gap      omega  full diag
   1    -20.4503642 -0.204504E+02  0.108E-01   12.36       0.0  T
   2    -20.4503673 -0.303645E-05  0.654E-02   12.36       1.0  T
   3    -20.4503686 -0.133742E-05  0.844E-03   12.37       3.4  T
   4    -20.4503687 -0.727885E-07  0.239E-03   12.37      12.1  T
   5    -20.4503687 -0.220547E-08  0.223E-04   12.37     129.5  T
   6    -20.4503687 -0.322125E-10  0.105E-04   12.37     275.5  T
     SCC iter.                  ...        0 min,  0.002 sec
     gradient                   ...        0 min,  0.000 sec
 * total energy  :   -20.3229449 Eh     change       -0.7035890E-03 Eh
   gradient norm :     0.0075950 Eh/α   predicted    -0.7490255E-03 (   6.46%)
   displ. norm   :     0.1175697 α      lambda       -0.2869355E-03
   maximum displ.:     0.0673476 α      in ANC's #6, #1, #4, ...

........................................................................
.............................. CYCLE  175 ..............................
........................................................................

 iter      E             dE          RMSdq      gap      omega  full diag
   1    -20.4471144 -0.204471E+02  0.689E-02   12.29       0.0  T
   2    -20.4471165 -0.216296E-05  0.414E-02   12.30       1.0  T
   3    -20.4471171 -0.608842E-06  0.667E-03   12.30       4.3  T
   4    -20.4471172 -0.692224E-07  0.168E-03   12.30      17.1  T
   5    -20.4471172 -0.123475E-08  0.207E-04   12.30     139.5  T
   6    -20.4471172 -0.461107E-10  0.770E-05   12.30     375.1  T
     SCC iter.                  ...        0 min,  0.002 sec
     gradient                   ...        0 min,  0.001 sec
 * total energy  :   -20.3230286 Eh     change       -0.8368416E-04 Eh
   gradient norm :     0.0128357 Eh/α   predicted    -0.1454508E-03 (  73.81%)
   displ. norm   :     0.0662425 α      lambda       -0.1694652E-03
   maximum displ.:     0.0415884 α      in ANC's #1, #4, #14, ...

........................................................................
.............................. CYCLE  176 ..............................
........................................................................

 iter      E             dE          RMSdq      gap      omega  full diag
   1    -20.4476917 -0.204477E+02  0.285E-02   12.32       0.0  T
   2    -20.4476920 -0.372546E-06  0.167E-02   12.32       1.7  T
   3    -20.4476921 -0.848312E-07  0.284E-03   12.32      10.2  T
   4    -20.4476921 -0.109622E-07  0.619E-04   12.32      46.7  T
   5    -20.4476921 -0.172193E-09  0.751E-05   12.32     384.3  T
     SCC iter.                  ...        0 min,  0.002 sec
     gradient                   ...        0 min,  0.000 sec
 * total energy  :   -20.3231499 Eh     change       -0.1212554E-03 Eh
   gradient norm :     0.0088572 Eh/α   predicted    -0.8510596E-04 ( -29.81%)
   displ. norm   :     0.1770213 α      lambda       -0.2838961E-03
   maximum displ.:     0.1413224 α      in ANC's #1, #2, #12, ...

........................................................................
.............................. CYCLE  177 ..............................
........................................................................

 iter      E             dE          RMSdq      gap      omega  full diag
   1    -20.4493243 -0.204493E+02  0.652E-02   12.36       0.0  T
   2    -20.4493252 -0.893002E-06  0.398E-02   12.36       1.0  T
   3    -20.4493256 -0.422842E-06  0.417E-03   12.36       6.9  T
   4    -20.4493256 -0.225084E-07  0.133E-03   12.36      21.7  T
   5    -20.4493256 -0.908340E-09  0.140E-04   12.36     206.1  T
   6    -20.4493256 -0.171383E-10  0.635E-05   12.36     454.3  T
     SCC iter.                  ...        0 min,  0.001 sec
     gradient                   ...        0 min,  0.001 sec
 * total energy  :   -20.3233261 Eh     change       -0.1762129E-03 Eh
   gradient norm :     0.0071914 Eh/α   predicted    -0.1463971E-03 ( -16.92%)
   displ. norm   :     0.3120042 α      lambda       -0.3672171E-03
   maximum displ.:     0.2428454 α      in ANC's #1, #16, #14, ...

........................................................................
.............................. CYCLE  178 ..............................
........................................................................

 iter      E             dE          RMSdq      gap      omega  full diag
   1    -20.4484911 -0.204485E+02  0.120E-01   12.33       0.0  T
   2    -20.4484966 -0.544958E-05  0.728E-02   12.34       1.0  T
   3    -20.4484983 -0.168378E-05  0.106E-02   12.33       2.7  T
   4    -20.4484985 -0.183269E-06  0.258E-03   12.33      11.2  T
   5    -20.4484985 -0.308386E-08  0.280E-04   12.33     103.1  T
   6    -20.4484985 -0.503206E-10  0.136E-04   12.33     212.0  T
     SCC iter.                  ...        0 min,  0.002 sec
     gradient                   ...        0 min,  0.001 sec
 * total energy  :   -20.3235209 Eh     change       -0.1948419E-03 Eh
   gradient norm :     0.0096533 Eh/α   predicted    -0.2014863E-03 (   3.41%)
   displ. norm   :     0.2445767 α      lambda       -0.3233760E-03
   maximum displ.:     0.1791360 α      in ANC's #1, #8, #2, ...

........................................................................
.............................. CYCLE  179 ..............................
........................................................................

 iter      E             dE          RMSdq      gap      omega  full diag
   1    -20.4460028 -0.204460E+02  0.102E-01   12.27       0.0  T
   2    -20.4460052 -0.241558E-05  0.624E-02   12.28       1.0  T
   3    -20.4460062 -0.970404E-06  0.672E-03   12.28       4.3  T
   4    -20.4460063 -0.667228E-07  0.202E-03   12.28      14.3  T
   5    -20.4460063 -0.170276E-08  0.230E-04   12.28     125.6  T
   6    -20.4460063 -0.440252E-10  0.105E-04   12.28     276.0  T
     SCC iter.                  ...        0 min,  0.001 sec
     gradient                   ...        0 min,  0.001 sec
 * total energy  :   -20.3236067 Eh     change       -0.8579121E-04 Eh
   gradient norm :     0.0138370 Eh/α   predicted    -0.1713580E-03 (  99.74%)
   displ. norm   :     0.0892394 α      lambda       -0.2646186E-03
   maximum displ.:     0.0398087 α      in ANC's #14, #11, #7, ...

........................................................................
.............................. CYCLE  180 ..............................
........................................................................

 iter      E             dE          RMSdq      gap      omega  full diag
   1    -20.4489307 -0.204489E+02  0.486E-02   12.36       0.0  T
   2    -20.4489330 -0.233137E-05  0.281E-02   12.35       1.0  T
   3    -20.4489334 -0.364519E-06  0.702E-03   12.35       4.1  T
   4    -20.4489335 -0.465682E-07  0.116E-03   12.35      24.9  T
   5    -20.4489335 -0.677677E-09  0.193E-04   12.35     149.9  T
   6    -20.4489335 -0.262652E-10  0.726E-05   12.35     397.8  T
     SCC iter.                  ...        0 min,  0.002 sec
     gradient                   ...        0 min,  0.000 sec
 * total energy  :   -20.3237117 Eh     change       -0.1050140E-03 Eh
   gradient norm :     0.0084636 Eh/α   predicted    -0.1333644E-03 (  27.00%)
   displ. norm   :     0.0880578 α      lambda       -0.1519708E-03
   maximum displ.:     0.0374694 α      in ANC's #11, #5, #6, ...

........................................................................
.............................. CYCLE  181 ..............................
........................................................................

 iter      E             dE          RMSdq      gap      omega  full diag
   1    -20.4482602 -0.204483E+02  0.390E-02   12.36       0.0  T
   2    -20.4482607 -0.502372E-06  0.230E-02   12.36       1.3  T
   3    -20.4482608 -0.113580E-06  0.332E-03   12.36       8.7  T
   4    -20.4482608 -0.160857E-07  0.787E-04   12.36      36.7  T
   5    -20.4482608 -0.187708E-09  0.775E-05   12.36     372.3  T
     SCC iter.                  ...        0 min,  0.002 sec
     gradient                   ...        0 min,  0.001 sec
 * total energy  :   -20.3237893 Eh     change       -0.7757863E-04 Eh
   gradient norm :     0.0059302 Eh/α   predicted    -0.7657569E-04 (  -1.29%)
   displ. norm   :     0.0862459 α      lambda       -0.1338713E-03
   maximum displ.:     0.0381749 α      in ANC's #1, #4, #5, ...

........................................................................
.............................. CYCLE  182 ..............................
........................................................................

 iter      E             dE          RMSdq      gap      omega  full diag
   1    -20.4490491 -0.204490E+02  0.447E-02   12.40       0.0  T
   2    -20.4490494 -0.266000E-06  0.275E-02   12.40       1.0  T
   3    -20.4490495 -0.163306E-06  0.228E-03   12.40      12.7  T
   4    -20.4490495 -0.325376E-08  0.603E-04   12.40      47.9  T
   5    -20.4490495 -0.327624E-09  0.103E-04   12.40     280.2  T
     SCC iter.                  ...        0 min,  0.002 sec
     gradient                   ...        0 min,  0.000 sec
 * total energy  :   -20.3238869 Eh     change       -0.9762588E-04 Eh
   gradient norm :     0.0058337 Eh/α   predicted    -0.6743416E-04 ( -30.93%)
   displ. norm   :     0.2665637 α      lambda       -0.2178511E-03
   maximum displ.:     0.1683604 α      in ANC's #1, #2, #8, ...

........................................................................
.............................. CYCLE  183 ..............................
........................................................................

 iter      E             dE          RMSdq      gap      omega  full diag
   1    -20.4469876 -0.204470E+02  0.139E-01   12.36       0.0  T
   2    -20.4469922 -0.464836E-05  0.847E-02   12.36       1.0  T
   3    -20.4469938 -0.155624E-05  0.964E-03   12.36       3.0  T
   4    -20.4469940 -0.160571E-06  0.269E-03   12.36      10.7  T
   5    -20.4469940 -0.364769E-08  0.302E-04   12.36      95.7  T
   6    -20.4469940 -0.102528E-09  0.123E-04   12.36     234.0  T
     SCC iter.                  ...        0 min,  0.002 sec
     gradient                   ...        0 min,  0.000 sec
 * total energy  :   -20.3239731 Eh     change       -0.8611673E-04 Eh
   gradient norm :     0.0138818 Eh/α   predicted    -0.1166661E-03 (  35.47%)
   displ. norm   :     0.1275309 α      lambda       -0.2443413E-03
   maximum displ.:     0.0673809 α      in ANC's #1, #6, #12, ...
 * RMSD in coord.:     1.4507254 α      energy gain  -0.1196974E-01 Eh

generating ANC from exact Hessian ...
Using Lindh-Hessian (1995)
 Shifting diagonal of input Hessian by   1.036610740091961E-002
 Lowest  eigenvalues of input Hessian
    0.010000    0.000000    0.000000    0.000000    0.000000    0.000000
    0.000000    0.010669    0.010884    0.011329    0.011513    0.013171
    0.018337    0.018870    0.019757    0.021109    0.022653    0.029116
 Highest eigenvalues
    1.202766    1.211012    1.397700    1.403136    1.410861    1.412622
 

........................................................................
.............................. CYCLE  184 ..............................
........................................................................

 iter      E             dE          RMSdq      gap      omega  full diag
   1    -20.4497052 -0.204497E+02  0.631E-02   12.44       0.0  T
   2    -20.4497064 -0.123736E-05  0.383E-02   12.44       1.0  T
   3    -20.4497068 -0.371896E-06  0.515E-03   12.44       5.6  T
   4    -20.4497068 -0.422591E-07  0.131E-03   12.44      22.1  T
   5    -20.4497068 -0.719641E-09  0.138E-04   12.44     208.5  T
   6    -20.4497068 -0.155040E-10  0.618E-05   12.44     466.8  T
     SCC iter.                  ...        0 min,  0.002 sec
     gradient                   ...        0 min,  0.000 sec
 * total energy  :   -20.3240970 Eh     change       -0.1239616E-03 Eh
   gradient norm :     0.0095587 Eh/α   predicted     0.0000000E+00 (-100.00%)
   displ. norm   :     0.1033324 α      lambda       -0.2453954E-03
   maximum displ.:     0.0484586 α      in ANC's #5, #4, #2, ...

........................................................................
.............................. CYCLE  185 ..............................
........................................................................

 iter      E             dE          RMSdq      gap      omega  full diag
   1    -20.4493704 -0.204494E+02  0.655E-02   12.43       0.0  T
   2    -20.4493707 -0.341687E-06  0.402E-02   12.43       1.0  T
   3    -20.4493709 -0.210645E-06  0.242E-03   12.43      11.9  T
   4    -20.4493709 -0.322941E-08  0.665E-04   12.43      43.4  T
   5    -20.4493709 -0.357023E-09  0.109E-04   12.43     265.2  T
     SCC iter.                  ...        0 min,  0.002 sec
     gradient                   ...        0 min,  0.000 sec
 * total energy  :   -20.3242795 Eh     change       -0.1824289E-03 Eh
   gradient norm :     0.0035795 Eh/α   predicted    -0.1240072E-03 ( -32.02%)
   displ. norm   :     0.1764213 α      lambda       -0.2195580E-03
   maximum displ.:     0.0812367 α      in ANC's #2, #4, #10, ...

........................................................................
.............................. CYCLE  186 ..............................
........................................................................

 iter      E             dE          RMSdq      gap      omega  full diag
   1    -20.4477453 -0.204477E+02  0.112E-01   12.38       0.0  T
   2    -20.4477468 -0.154169E-05  0.694E-02   12.38       1.0  T
   3    -20.4477477 -0.849501E-06  0.513E-03   12.38       5.6  T
   4    -20.4477477 -0.256459E-07  0.167E-03   12.38      17.2  T
   5    -20.4477477 -0.160248E-08  0.202E-04   12.38     143.1  T
   6    -20.4477477 -0.330864E-10  0.965E-05   12.38     299.2  T
     SCC iter.                  ...        0 min,  0.001 sec
     gradient                   ...        0 min,  0.001 sec
 * total energy  :   -20.3244157 Eh     change       -0.1362831E-03 Eh
   gradient norm :     0.0060337 Eh/α   predicted    -0.1131943E-03 ( -16.94%)
   displ. norm   :     0.1014927 α      lambda       -0.8768648E-04
   maximum displ.:     0.0463242 α      in ANC's #4, #2, #1, ...

........................................................................
.............................. CYCLE  187 ..............................
........................................................................

 iter      E             dE          RMSdq      gap      omega  full diag
   1    -20.4477081 -0.204477E+02  0.537E-02   12.38       0.0  T
   2    -20.4477085 -0.399552E-06  0.331E-02   12.38       1.0  T
   3    -20.4477087 -0.189201E-06  0.263E-03   12.38      11.0  T
   4    -20.4477087 -0.895777E-08  0.860E-04   12.38      33.6  T
   5    -20.4477087 -0.370331E-09  0.115E-04   12.38     251.7  T
     SCC iter.                  ...        0 min,  0.001 sec
     gradient                   ...        0 min,  0.001 sec
 * total energy  :   -20.3244863 Eh     change       -0.7055523E-04 Eh
   gradient norm :     0.0058910 Eh/α   predicted    -0.4429317E-04 ( -37.22%)
   displ. norm   :     0.1716848 α      lambda       -0.1582244E-03
   maximum displ.:     0.0925848 α      in ANC's #1, #2, #10, ...

........................................................................
.............................. CYCLE  188 ..............................
........................................................................

 iter      E             dE          RMSdq      gap      omega  full diag
   1    -20.4487232 -0.204487E+02  0.776E-02   12.42       0.0  T
   2    -20.4487243 -0.113808E-05  0.475E-02   12.42       1.0  T
   3    -20.4487247 -0.396860E-06  0.453E-03   12.42       6.4  T
   4    -20.4487247 -0.343463E-07  0.126E-03   12.42      22.9  T
   5    -20.4487247 -0.649315E-09  0.192E-04   12.42     150.6  T
   6    -20.4487247 -0.238636E-10  0.772E-05   12.42     373.8  T
     SCC iter.                  ...        0 min,  0.002 sec
     gradient                   ...        0 min,  0.001 sec
 * total energy  :   -20.3245909 Eh     change       -0.1046137E-03 Eh
   gradient norm :     0.0026564 Eh/α   predicted    -0.8144186E-04 ( -22.15%)
   displ. norm   :     0.1790262 α      lambda       -0.7479984E-04
   maximum displ.:     0.0979846 α      in ANC's #2, #1, #4, ...

........................................................................
.............................. CYCLE  189 ..............................
........................................................................

 iter      E             dE          RMSdq      gap      omega  full diag
   1    -20.4476408 -0.204476E+02  0.844E-02   12.39       0.0  T
   2    -20.4476421 -0.126987E-05  0.516E-02   12.39       1.0  T
   3    -20.4476425 -0.434714E-06  0.483E-03   12.39       6.0  T
   4    -20.4476425 -0.400313E-07  0.143E-03   12.39      20.2  T
   5    -20.4476425 -0.886153E-09  0.183E-04   12.39     158.2  T
   6    -20.4476425 -0.209184E-10  0.826E-05   12.39     349.4  T
     SCC iter.                  ...        0 min,  0.001 sec
     gradient                   ...        0 min,  0.001 sec
 * total energy  :   -20.3246289 Eh     change       -0.3798027E-04 Eh
   gradient norm :     0.0067215 Eh/α   predicted    -0.3860009E-04 (   1.63%)
   displ. norm   :     0.1265407 α      lambda       -0.9447505E-04
   maximum displ.:     0.0856257 α      in ANC's #1, #2, #7, ...

........................................................................
.............................. CYCLE  190 ..............................
........................................................................

 iter      E             dE          RMSdq      gap      omega  full diag
   1    -20.4488681 -0.204489E+02  0.422E-02   12.41       0.0  T
   2    -20.4488684 -0.302362E-06  0.255E-02   12.41       1.1  T
   3    -20.4488685 -0.790556E-07  0.240E-03   12.41      12.0  T
   4    -20.4488685 -0.104924E-07  0.597E-04   12.41      48.3  T
   5    -20.4488685 -0.140972E-09  0.950E-05   12.41     303.8  T
     SCC iter.                  ...        0 min,  0.001 sec
     gradient                   ...        0 min,  0.001 sec
 * total energy  :   -20.3246795 Eh     change       -0.5062665E-04 Eh
   gradient norm :     0.0028570 Eh/α   predicted    -0.4799305E-04 (  -5.20%)
   displ. norm   :     0.1501694 α      lambda       -0.5427553E-04
   maximum displ.:     0.1078308 α      in ANC's #1, #2, #7, ...

........................................................................
.............................. CYCLE  191 ..............................
........................................................................

 iter      E             dE          RMSdq      gap      omega  full diag
   1    -20.4484123 -0.204484E+02  0.559E-02   12.41       0.0  T
   2    -20.4484131 -0.735797E-06  0.341E-02   12.41       1.0  T
   3    -20.4484133 -0.201568E-06  0.370E-03   12.41       7.8  T
   4    -20.4484133 -0.255320E-07  0.925E-04   12.41      31.2  T
   5    -20.4484133 -0.292559E-09  0.120E-04   12.41     240.7  T
     SCC iter.                  ...        0 min,  0.000 sec
     gradient                   ...        0 min,  0.001 sec
 * total energy  :   -20.3247113 Eh     change       -0.3181046E-04 Eh
   gradient norm :     0.0035341 Eh/α   predicted    -0.2775025E-04 ( -12.76%)
   displ. norm   :     0.1430213 α      lambda       -0.4884898E-04
   maximum displ.:     0.0997244 α      in ANC's #1, #2, #3, ...

........................................................................
.............................. CYCLE  192 ..............................
........................................................................

 iter      E             dE          RMSdq      gap      omega  full diag
   1    -20.4476300 -0.204476E+02  0.541E-02   12.39       0.0  T
   2    -20.4476304 -0.380920E-06  0.331E-02   12.39       1.0  T
   3    -20.4476306 -0.184224E-06  0.276E-03   12.39      10.5  T
   4    -20.4476306 -0.839686E-08  0.850E-04   12.39      34.0  T
   5    -20.4476306 -0.408544E-09  0.122E-04   12.39     237.0  T
     SCC iter.                  ...        0 min,  0.001 sec
     gradient                   ...        0 min,  0.001 sec
 * total energy  :   -20.3247271 Eh     change       -0.1575110E-04 Eh
   gradient norm :     0.0052340 Eh/α   predicted    -0.2492345E-04 (  58.23%)
   displ. norm   :     0.0782397 α      lambda       -0.5762499E-04
   maximum displ.:     0.0515676 α      in ANC's #1, #2, #6, ...

........................................................................
.............................. CYCLE  193 ..............................
........................................................................

 iter      E             dE          RMSdq      gap      omega  full diag
   1    -20.4483272 -0.204483E+02  0.309E-02   12.40       0.0  T
   2    -20.4483275 -0.343901E-06  0.183E-02   12.40       1.6  T
   3    -20.4483276 -0.828957E-07  0.276E-03   12.40      10.5  T
   4    -20.4483276 -0.122354E-07  0.693E-04   12.40      41.6  T
   5    -20.4483276 -0.280743E-09  0.504E-05   12.40     573.1  T
     SCC iter.                  ...        0 min,  0.001 sec
     gradient                   ...        0 min,  0.001 sec
 * total energy  :   -20.3247551 Eh     change       -0.2804564E-04 Eh
   gradient norm :     0.0031121 Eh/α   predicted    -0.2898869E-04 (   3.36%)
   displ. norm   :     0.0644247 α      lambda       -0.1884763E-04
   maximum displ.:     0.0497759 α      in ANC's #1, #2, #3, ...

........................................................................
.............................. CYCLE  194 ..............................
........................................................................

 iter      E             dE          RMSdq      gap      omega  full diag
   1    -20.4486446 -0.204486E+02  0.222E-02   12.42       0.0  T
   2    -20.4486447 -0.520442E-07  0.137E-02   12.42       2.1  T
   3    -20.4486447 -0.301841E-07  0.953E-04   12.42      30.3  T
   4    -20.4486447 -0.526210E-09  0.191E-04   12.42     151.3  T
     SCC iter.                  ...        0 min,  0.001 sec
     gradient                   ...        0 min,  0.001 sec
 * total energy  :   -20.3247697 Eh     change       -0.1455552E-04 Eh
   gradient norm :     0.0018373 Eh/α   predicted    -0.9463724E-05 ( -34.98%)
   displ. norm   :     0.1400063 α      lambda       -0.2392276E-04
   maximum displ.:     0.1093012 α      in ANC's #1, #2, #9, ...

........................................................................
.............................. CYCLE  195 ..............................
........................................................................

 iter      E             dE          RMSdq      gap      omega  full diag
   1    -20.4497311 -0.204497E+02  0.478E-02   12.46       0.0  T
   2    -20.4497316 -0.442555E-06  0.293E-02   12.46       1.0  T
   3    -20.4497317 -0.154334E-06  0.286E-03   12.46      10.1  T
   4    -20.4497317 -0.141272E-07  0.838E-04   12.46      34.5  T
   5    -20.4497317 -0.357733E-09  0.118E-04   12.46     244.6  T
     SCC iter.                  ...        0 min,  0.001 sec
     gradient                   ...        0 min,  0.001 sec
 * total energy  :   -20.3247859 Eh     change       -0.1618104E-04 Eh
   gradient norm :     0.0022918 Eh/α   predicted    -0.1206594E-04 ( -25.43%)
   displ. norm   :     0.1534625 α      lambda       -0.2155786E-04
   maximum displ.:     0.1040057 α      in ANC's #2, #1, #4, ...

........................................................................
.............................. CYCLE  196 ..............................
........................................................................

 iter      E             dE          RMSdq      gap      omega  full diag
   1    -20.4485782 -0.204486E+02  0.531E-02   12.42       0.0  T
   2    -20.4485784 -0.216618E-06  0.325E-02   12.42       1.0  T
   3    -20.4485786 -0.130884E-06  0.211E-03   12.42      13.7  T
   4    -20.4485786 -0.296513E-08  0.477E-04   12.42      60.6  T
   5    -20.4485786 -0.220542E-09  0.127E-04   12.42     227.8  T
     SCC iter.                  ...        0 min,  0.002 sec
     gradient                   ...        0 min,  0.001 sec
 * total energy  :   -20.3247889 Eh     change       -0.3055511E-05 Eh
   gradient norm :     0.0031485 Eh/α   predicted    -0.1103233E-04 ( 261.06%)
   displ. norm   :     0.0372914 α      lambda       -0.1788488E-04
   maximum displ.:     0.0210767 α      in ANC's #2, #1, #4, ...

........................................................................
.............................. CYCLE  197 ..............................
........................................................................

 iter      E             dE          RMSdq      gap      omega  full diag
   1    -20.4492005 -0.204492E+02  0.189E-02   12.43       0.0  T
   2    -20.4492006 -0.761253E-07  0.115E-02   12.43       2.5  T
   3    -20.4492006 -0.293826E-07  0.129E-03   12.43      22.4  T
   4    -20.4492006 -0.227701E-08  0.382E-04   12.43      75.7  T
   5    -20.4492006 -0.772893E-10  0.453E-05   12.43     637.7  T
     SCC iter.                  ...        0 min,  0.002 sec
     gradient                   ...        0 min,  0.001 sec
 * total energy  :   -20.3247982 Eh     change       -0.9267303E-05 Eh
   gradient norm :     0.0008457 Eh/α   predicted    -0.8956281E-05 (  -3.36%)
   displ. norm   :     0.0411504 α      lambda       -0.4858847E-05
   maximum displ.:     0.0325876 α      in ANC's #1, #2, #3, ...

........................................................................
.............................. CYCLE  198 ..............................
........................................................................

 iter      E             dE          RMSdq      gap      omega  full diag
   1    -20.4491876 -0.204492E+02  0.107E-02   12.43       0.0  T
   2    -20.4491876 -0.267218E-07  0.641E-03   12.43       4.5  T
   3    -20.4491876 -0.678641E-08  0.716E-04   12.43      40.3  T
   4    -20.4491876 -0.822432E-09  0.173E-04   12.43     166.4  T
     SCC iter.                  ...        0 min,  0.002 sec
     gradient                   ...        0 min,  0.000 sec
 * total energy  :   -20.3248013 Eh     change       -0.3138861E-05 Eh
   gradient norm :     0.0009864 Eh/α   predicted    -0.2432741E-05 ( -22.50%)
   displ. norm   :     0.0666591 α      lambda       -0.3960348E-05
   maximum displ.:     0.0488119 α      in ANC's #1, #2, #16, ...

........................................................................
.............................. CYCLE  199 ..............................
........................................................................

 iter      E             dE          RMSdq      gap      omega  full diag
   1    -20.4489357 -0.204489E+02  0.194E-02   12.42       0.0  T
   2    -20.4489357 -0.358022E-07  0.119E-02   12.42       2.4  T
   3    -20.4489357 -0.182201E-07  0.854E-04   12.42      33.8  T
   4    -20.4489357 -0.671815E-09  0.237E-04   12.42     121.7  T
     SCC iter.                  ...        0 min,  0.001 sec
     gradient                   ...        0 min,  0.000 sec
 * total energy  :   -20.3248044 Eh     change       -0.3032641E-05 Eh
   gradient norm :     0.0009326 Eh/α   predicted    -0.1984069E-05 ( -34.58%)
   displ. norm   :     0.0229934 α      lambda       -0.1354935E-05
   maximum displ.:     0.0157549 α      in ANC's #1, #2, #7, ...

........................................................................
.............................. CYCLE  200 ..............................
........................................................................

 iter      E             dE          RMSdq      gap      omega  full diag
   1    -20.4489625 -0.204490E+02  0.708E-03   12.42       0.0  T
   2    -20.4489626 -0.132617E-07  0.434E-03   12.42       6.7  T
   3    -20.4489626 -0.433662E-08  0.495E-04   12.42      58.4  T
   4    -20.4489626 -0.384919E-09  0.140E-04   12.42     206.4  T
     SCC iter.                  ...        0 min,  0.001 sec
     gradient                   ...        0 min,  0.000 sec
 * total energy  :   -20.3248056 Eh     change       -0.1248976E-05 Eh
   gradient norm :     0.0003253 Eh/α   predicted    -0.6782043E-06 ( -45.70%)
   displ. norm   :     0.0207406 α      lambda       -0.1027282E-05
   maximum displ.:     0.0117775 α      in ANC's #1, #4, #5, ...

........................................................................
.............................. CYCLE  201 ..............................
........................................................................

 iter      E             dE          RMSdq      gap      omega  full diag
   1    -20.4489968 -0.204490E+02  0.824E-03   12.43       0.0  T
   2    -20.4489968 -0.145897E-07  0.504E-03   12.43       5.7  T
   3    -20.4489968 -0.490102E-08  0.532E-04   12.43      54.3  T
   4    -20.4489968 -0.486214E-09  0.160E-04   12.43     180.7  T
     SCC iter.                  ...        0 min,  0.003 sec
     gradient                   ...        0 min,  0.001 sec
 * total energy  :   -20.3248066 Eh     change       -0.1043404E-05 Eh
   gradient norm :     0.0003720 Eh/α   predicted    -0.5136897E-06 ( -50.77%)
   displ. norm   :     0.0220987 α      lambda       -0.7204815E-06
   maximum displ.:     0.0099384 α      in ANC's #1, #5, #4, ...

........................................................................
.............................. CYCLE  202 ..............................
........................................................................

 iter      E             dE          RMSdq      gap      omega  full diag
   1    -20.4490858 -0.204491E+02  0.815E-03   12.43       0.0  T
   2    -20.4490858 -0.925479E-08  0.497E-03   12.43       5.8  T
   3    -20.4490858 -0.351553E-08  0.416E-04   12.43      69.4  T
   4    -20.4490858 -0.287205E-09  0.137E-04   12.43     210.1  T
     SCC iter.                  ...        0 min,  0.001 sec
     gradient                   ...        0 min,  0.000 sec
 * total energy  :   -20.3248072 Eh     change       -0.5684705E-06 Eh
   gradient norm :     0.0002974 Eh/α   predicted    -0.3612243E-06 ( -36.46%)
   displ. norm   :     0.0071480 α      lambda       -0.1726686E-06
   maximum displ.:     0.0044848 α      in ANC's #1, #5, #7, ...

   *** GEOMETRY OPTIMIZATION CONVERGED AFTER 202 ITERATIONS ***

------------------------------------------------------------------------
 total energy gain   :        -0.0887538 Eh      -55.6939 kcal/mol
 total RMSD          :         1.4581643 a0        0.7716 Å
 total power (kW/mol):        -1.1535801 (step) -377.6712 (real)
------------------------------------------------------------------------

 ANCopt (total)                0 d,  0 h,  0 min,  0.617 sec
 optimizer setup                ...        0 min,  0.000 sec (  0.000%)
 model hessian                  ...        0 min,  0.008 sec (  1.297%)
 ANC generation                 ...        0 min,  0.004 sec (  0.648%)
 coordinate transformation      ...        0 min,  0.001 sec (  0.162%)
 single point calculation       ...        0 min,  0.537 sec ( 87.034%)
 optimization log               ...        0 min,  0.025 sec (  4.052%)
 hessian update                 ...        0 min,  0.008 sec (  1.297%)
 rational function              ...        0 min,  0.024 sec (  3.890%)

================
 final structure:
================
12
 xtb: 6.7.1pre (5071a88)
O            1.89682488869416       -0.14996454839271        0.34432693031496
H            2.34005240636118       -0.62519175840266       -0.35990833535226
H            1.23551098442425       -0.77515441768910        0.71800073991278
O            0.11717618185165        1.73763569458550       -0.37535048887641
H            0.27547299459026        2.50888224565421        0.17075568885273
H            0.84034259425805        1.10463688993619       -0.16487749343869
O           -1.90069558347107        0.11465517075175        0.35969186635857
H           -2.39161212630918       -0.11422149581140       -0.43078298980145
H           -1.23640803808532        0.78497192998293        0.08098399662389
O           -0.11540460705782       -1.69950022002004        1.23619960032992
H           -0.21928636064703       -1.77704372480773        2.18565366327569
H           -0.84197333455722       -1.10970576576223        0.93194394189853
 
 Bond Distances (Angstroems)
 ---------------------------
O1-H2=0.9582         O1-H3=0.9838         H2-O1=0.9582         H3-O1=0.9838         O4-H5=0.9582         O4-H6=0.9838         
H5-O4=0.9582         H6-O4=0.9838         O7-H8=0.9582         O7-H9=0.9840         H8-O7=0.9582         H9-O7=0.9840         
O10-H11=0.9583       O10-H12=0.9840       H11-O10=0.9583       H12-O10=0.9840       
 O  H  Rav=0.9711 sigma=0.0128  Rmin=0.9582  Rmax=0.9840     8
 
 selected bond angles (degree)
 --------------------
H3-O1-H2=105.96                H6-O4-H5=105.93                H9-O7-H8=105.96                H12-O10-H11=105.95             
 
 selected dihedral angles (degree)
 ---------------------------------

 
 CMA Distance (Angstroems)
 ---------------------------
R(CMA):  2.5308
           -------------------------------------------------
          |                Final Singlepoint                |
           -------------------------------------------------

          ...................................................
          :                      SETUP                      :
          :.................................................:
          :  # basis functions                  24          :
          :  # atomic orbitals                  24          :
          :  # shells                           16          :
          :  # electrons                        32          :
          :  max. iterations                   250          :
          :  Hamiltonian                  GFN2-xTB          :
          :  restarted?                      false          :
          :  GBSA solvation                  false          :
          :  PC potential                    false          :
          :  electronic temp.          300.0000000     K    :
          :  accuracy                    1.0000000          :
          :  -> integral cutoff          0.2500000E+02      :
          :  -> integral neglect         0.1000000E-07      :
          :  -> SCF convergence          0.1000000E-05 Eh   :
          :  -> wf. convergence          0.1000000E-03 e    :
          :  Broyden damping             0.4000000          :
          :  net charge                          0          :
          :  unpaired electrons                  0          :
          ...................................................

 iter      E             dE          RMSdq      gap      omega  full diag
   1    -20.4490858 -0.204491E+02  0.122E-05   12.43       0.0  T
   2    -20.4490858 -0.103029E-12  0.730E-06   12.43    3955.7  T
   3    -20.4490858 -0.284217E-13  0.164E-06   12.43   17561.3  T

   *** convergence criteria satisfied after 3 iterations ***

         #    Occupation            Energy/Eh            Energy/eV
      -------------------------------------------------------------
         1        2.0000           -0.6751214             -18.3710
       ...           ...                  ...                  ...
        10        2.0000           -0.5084371             -13.8353
        11        2.0000           -0.5083297             -13.8324
        12        2.0000           -0.4935465             -13.4301
        13        2.0000           -0.4395848             -11.9617
        14        2.0000           -0.4395559             -11.9609
        15        2.0000           -0.4395012             -11.9594
        16        2.0000           -0.4373906             -11.9020 (HOMO)
        17                          0.0193329               0.5261 (LUMO)
        18                          0.1042049               2.8356
        19                          0.1042753               2.8375
        20                          0.1728558               4.7036
        21                          0.2831882               7.7059
       ...                                ...                  ...
        24                          0.3084530               8.3934
      -------------------------------------------------------------
                  HL-Gap            0.4567235 Eh           12.4281 eV
             Fermi-level           -0.2090288 Eh           -5.6880 eV

 SCC (total)                   0 d,  0 h,  0 min,  0.002 sec
 SCC setup                      ...        0 min,  0.000 sec (  0.000%)
 Dispersion                     ...        0 min,  0.000 sec (  0.000%)
 classical contributions        ...        0 min,  0.000 sec (  0.000%)
 integral evaluation            ...        0 min,  0.000 sec (  0.000%)
 iterations                     ...        0 min,  0.001 sec ( 50.000%)
 molecular gradient             ...        0 min,  0.001 sec ( 50.000%)
 printout                       ...        0 min,  0.000 sec (  0.000%)

         :::::::::::::::::::::::::::::::::::::::::::::::::::::
         ::                     SUMMARY                     ::
         :::::::::::::::::::::::::::::::::::::::::::::::::::::
         :: total energy             -20.324807213618 Eh    ::
         :: gradient norm              0.000297242312 Eh/a0 ::
         :: HOMO-LUMO gap             12.428079743003 eV    ::
         ::.................................................::
         :: SCC energy               -20.449075226878 Eh    ::
         :: -> isotropic ES            0.123442681923 Eh    ::
         :: -> anisotropic ES         -0.015564694126 Eh    ::
         :: -> anisotropic XC         -0.002935597483 Eh    ::
         :: -> dispersion             -0.003341188208 Eh    ::
         :: repulsion energy           0.124268013260 Eh    ::
         :: add. restraining           0.000000000000 Eh    ::
         :: total charge               0.000000000000 e     ::
         :::::::::::::::::::::::::::::::::::::::::::::::::::::

           -------------------------------------------------
          |                Property Printout                |
           -------------------------------------------------

    * Orbital Energies and Occupations

         #    Occupation            Energy/Eh            Energy/eV
      -------------------------------------------------------------
         1        2.0000           -0.6751214             -18.3710
       ...           ...                  ...                  ...
         4        2.0000           -0.6718999             -18.2833
         5        2.0000           -0.5689665             -15.4824
         6        2.0000           -0.5608797             -15.2623
         7        2.0000           -0.5608521             -15.2616
         8        2.0000           -0.5545290             -15.0895
         9        2.0000           -0.5283168             -14.3762
        10        2.0000           -0.5084371             -13.8353
        11        2.0000           -0.5083297             -13.8324
        12        2.0000           -0.4935465             -13.4301
        13        2.0000           -0.4395848             -11.9617
        14        2.0000           -0.4395559             -11.9609
        15        2.0000           -0.4395012             -11.9594
        16        2.0000           -0.4373906             -11.9020 (HOMO)
        17                          0.0193329               0.5261 (LUMO)
        18                          0.1042049               2.8356
        19                          0.1042753               2.8375
        20                          0.1728558               4.7036
        21                          0.2831882               7.7059
        22                          0.2996572               8.1541
        23                          0.2997971               8.1579
        24                          0.3084530               8.3934
      -------------------------------------------------------------
                  HL-Gap            0.4567235 Eh           12.4281 eV
             Fermi-level           -0.2090288 Eh           -5.6880 eV

     #   Z          covCN         q      C6AA      α(0)
     1   8 O        1.608    -0.609    25.400     6.802
     2   1 H        0.806     0.280     0.784     1.391
     3   1 H        0.802     0.329     0.641     1.258
     4   8 O        1.608    -0.609    25.397     6.802
     5   1 H        0.806     0.280     0.784     1.391
     6   1 H        0.802     0.329     0.641     1.257
     7   8 O        1.608    -0.609    25.397     6.802
     8   1 H        0.806     0.280     0.784     1.391
     9   1 H        0.802     0.329     0.641     1.257
    10   8 O        1.608    -0.609    25.402     6.802
    11   1 H        0.806     0.280     0.785     1.391
    12   1 H        0.802     0.329     0.641     1.258

 Mol. C6AA /au·bohr⁶  :        718.735425
 Mol. C8AA /au·bohr⁸  :      12919.045450
 Mol. α(0) /au        :         37.801907


Wiberg/Mayer (AO) data.
largest (>0.10) Wiberg bond orders for each atom

 ---------------------------------------------------------------------------
     #   Z sym  total        # sym  WBO       # sym  WBO       # sym  WBO
 ---------------------------------------------------------------------------
     1   8 O    1.872 --     2 H    0.919     3 H    0.827
     2   1 H    0.922 --     1 O    0.919
     3   1 H    0.892 --     1 O    0.827
     4   8 O    1.872 --     5 H    0.919     6 H    0.827
     5   1 H    0.922 --     4 O    0.919
     6   1 H    0.892 --     4 O    0.827
     7   8 O    1.873 --     8 H    0.919     9 H    0.826
     8   1 H    0.922 --     7 O    0.919
     9   1 H    0.892 --     7 O    0.826
    10   8 O    1.872 --    11 H    0.919    12 H    0.826
    11   1 H    0.922 --    10 O    0.919
    12   1 H    0.892 --    10 O    0.826
 ---------------------------------------------------------------------------

Topologies differ in total number of bonds
Writing topology from bond orders to xtbtopo.mol

molecular dipole:
                 x           y           z       tot (Debye)
 q only:        0.003      -0.003       0.001
   full:        0.004      -0.005       0.001       0.018
molecular quadrupole (traceless):
                xx          xy          yy          xz          yz          zz
 q only:       -1.096       0.056      -0.483       0.102       1.233       1.579
  q+dip:       -1.327       0.070      -0.580       0.126       1.485       1.907
   full:       -1.394       0.072      -0.609       0.130       1.561       2.002

           -------------------------------------------------
          |                Geometry Summary                 |
           -------------------------------------------------

      molecular mass/u    :       72.0611457
   center of mass at/Å    :       -0.0004367       0.0005879       0.3912455
  moments of inertia/u·Å² :        0.1348103E+03   0.1350209E+03   0.2635022E+03
rotational constants/cm⁻¹ :        0.1250471E+00   0.1248521E+00   0.6397531E-01

 * 8 selected distances

     #   Z          #   Z                                           value/Å
     1   8 O        2   1 H                                       0.9582479
     1   8 O        3   1 H                                       0.9837839
     4   8 O        5   1 H                                       0.9581812 (min)
     4   8 O        6   1 H                                       0.9838477
     7   8 O        8   1 H                                       0.9582454
     7   8 O        9   1 H                                       0.9840126
    10   8 O       11   1 H                                       0.9582628
    10   8 O       12   1 H                                       0.9840383 (max)

 * 1 distinct bonds (by element types)

   Z      Z             #   av. dist./Å        max./Å        min./Å
   1 H    8 O           8     0.9710775     0.9840383     0.9581812


optimized geometry written to: xtbopt.xyz


           -------------------------------------------------
          | TOTAL ENERGY              -20.324807213618 Eh   |
          | GRADIENT NORM               0.000297242312 Eh/α |
          | HOMO-LUMO GAP              12.428079743003 eV   |
           -------------------------------------------------

------------------------------------------------------------------------
 * finished run on 2026/07/03 at 11:18:24.590     
------------------------------------------------------------------------
 total:
 * wall-time:     0 d,  0 h,  0 min,  0.649 sec
 *  cpu-time:     0 d,  0 h,  0 min,  7.188 sec
 * ratio c/w:    11.075 speedup
 SCF:
 * wall-time:     0 d,  0 h,  0 min,  0.005 sec
 *  cpu-time:     0 d,  0 h,  0 min,  0.000 sec
 * ratio c/w:     0.000 speedup
 ANC optimizer:
 * wall-time:     0 d,  0 h,  0 min,  0.622 sec
 *  cpu-time:     0 d,  0 h,  0 min,  6.969 sec
 * ratio c/w:    11.204 speedup

normal termination of xtb
