12
(H2O)4 starting geometry, 12 atoms
O        1.90000000       0.00000000       0.00000000
H        1.90000000       0.75754080       0.58707964
H        1.90000000      -0.75754080       0.58707964
O        0.00000000       1.90000000       0.00000000
H       -0.75754080       1.90000000       0.58707964
H        0.75754080       1.90000000       0.58707964
O       -1.90000000       0.00000000       0.00000000
H       -1.90000000      -0.75754080       0.58707964
H       -1.90000000       0.75754080       0.58707964
O       -0.00000000      -1.90000000       0.00000000
H        0.75754080      -1.90000000       0.58707964
H       -0.75754080      -1.90000000       0.58707964
