      -----------------------------------------------------------      
     |                   =====================                   |     
     |                           x T B                           |     
     |                   =====================                   |     
     |                         S. Grimme                         |     
     |          Mulliken Center for Theoretical Chemistry        |     
     |                    University of Bonn                     |     
      -----------------------------------------------------------      

   * xtb version 6.7.1pre (5071a88) compiled by 'Marcel@Raven' on 2024-07-23

   xtb is free software: you can redistribute it and/or modify it under
   the terms of the GNU Lesser General Public License as published by
   the Free Software Foundation, either version 3 of the License, or
   (at your option) any later version.
   
   xtb is distributed in the hope that it will be useful,
   but WITHOUT ANY WARRANTY; without even the implied warranty of
   MERCHANTABILITY or FITNESS FOR A PARTICULAR PURPOSE.  See the
   GNU Lesser General Public License for more details.
   
   Cite this work as:
   * C. Bannwarth, E. Caldeweyher, S. Ehlert, A. Hansen, P. Pracht,
     J. Seibert, S. Spicher, S. Grimme, WIREs Comput. Mol. Sci., 2020, 11,
     e01493. DOI: 10.1002/wcms.1493
   
   for GFN2-xTB:
   * C. Bannwarth, S. Ehlert and S. Grimme., J. Chem. Theory Comput., 2019,
     15, 1652-1671. DOI: 10.1021/acs.jctc.8b01176
   for GFN1-xTB:
   * S. Grimme, C. Bannwarth, P. Shushkov, J. Chem. Theory Comput., 2017,
     13, 1989-2009. DOI: 10.1021/acs.jctc.7b00118
   for GFN0-xTB:
   * P. Pracht, E. Caldeweyher, S. Ehlert, S. Grimme, ChemRxiv, 2019, preprint.
     DOI: 10.26434/chemrxiv.8326202.v1
   for GFN-FF:
   * S. Spicher and S. Grimme, Angew. Chem. Int. Ed., 2020, 59, 15665-15673.
     DOI: 10.1002/anie.202004239
   
   for ALPB and GBSA implicit solvation:
   * S. Ehlert, M. Stahn, S. Spicher, S. Grimme, J. Chem. Theory Comput.,
     2021, 17, 4250-4261. DOI: 10.1021/acs.jctc.1c00471
   
   for ddCOSMO and CPCM-X implicit solvation:
   * M. Stahn, S. Ehlert, S. Grimme, J. Phys. Chem. A,
     2023, XX, XXXX-XXXX. DOI: 10.1021/acs.jpca.3c04382
   
   for DFT-D4:
   * E. Caldeweyher, C. Bannwarth and S. Grimme, J. Chem. Phys., 2017,
     147, 034112. DOI: 10.1063/1.4993215
   * E. Caldeweyher, S. Ehlert, A. Hansen, H. Neugebauer, S. Spicher,
     C. Bannwarth and S. Grimme, J. Chem. Phys., 2019, 150, 154122.
     DOI: 10.1063/1.5090222
   * E. Caldeweyher, J.-M. Mewes, S. Ehlert and S. Grimme, Phys. Chem. Chem. Phys.
     2020, 22, 8499-8512. DOI: 10.1039/D0CP00502A
   
   for sTDA-xTB:
   * S. Grimme and C. Bannwarth, J. Chem. Phys., 2016, 145, 054103.
     DOI: 10.1063/1.4959605
   
   in the mass-spec context:
   * V. Asgeirsson, C. Bauer and S. Grimme, Chem. Sci., 2017, 8, 4879.
     DOI: 10.1039/c7sc00601b
   * J. Koopman and S. Grimme, ACS Omega 2019, 4, 12, 15120-15133.
     DOI: 10.1021/acsomega.9b02011
   
   for metadynamics refer to:
   * S. Grimme, J. Chem. Theory Comput., 2019, 155, 2847-2862
     DOI: 10.1021/acs.jctc.9b00143
   
   for SPH calculations refer to:
   * S. Spicher and S. Grimme, J. Chem. Theory Comput., 2021, 17, 1701-1714
     DOI: 10.1021/acs.jctc.0c01306
   
   for ONIOM refer to:
   * C. Plett, A. Katbashev, S. Ehlert, S. Grimme, M. Bursch,
     Phys. Chem. Chem. Phys., 2023, 25, 17860-17868. DOI: 10.1039/D3CP02178E
   
   for DIPRO refer to:
   * J. Kohn, N. Gildemeister, S. Grimme, D. Fazzi, A. Hansen,
     J. Chem. Phys., 2023, just accepted.
   
   for PTB refer to:
   * S. Grimme, M. Mueller, A. Hansen, J. Chem. Phys., 2023, 158, 124111.
     DOI: 10.1063/5.0137838
   
   with help from (in alphabetical order)
   P. Atkinson, C. Bannwarth, F. Bohle, G. Brandenburg, E. Caldeweyher
   M. Checinski, S. Dohm, S. Ehlert, S. Ehrlich, I. Gerasimov, C. Hölzer
   A. Katbashev, J. Kohn, J. Koopman, C. Lavigne, S. Lehtola, F. März, M. Müller,
   F. Musil, H. Neugebauer, J. Pisarek, C. Plett, P. Pracht, F. Pultar,
   J. Seibert, P. Shushkov, S. Spicher, M. Stahn, M. Steiner, T. Strunk,
   J. Stückrath, T. Rose, and J. Unsleber
   
 * started run on 2026/07/10 at 14:10:27.409     
   ID    Z sym.   atoms
    1    8 o      1, 4, 7, 10, 13, 16, 19, 22
    2    1 h      2, 3, 5, 6, 8, 9, 11, 12, 14, 15, 17, 18, 20, 21, 23, 24

           -------------------------------------------------
          |                Calculation Setup                |
           -------------------------------------------------

          program call               : C:\Users\pc\Documents\Research\xtb_metadynamics\tools\xtb-6.7.1\bin\xtb.exe start.coord --md --input equil.inp --gfn 1 --chrg 0 --uhf 0
          coordinate file            : start.coord
          omp threads                :                    16


molecular fragmentation (1/2 indicates fragments):
111222222222222222222222
# atoms in fragment 1/2:     3    21
 fragment masses (1/2) :       18.02      126.11
CMA distance (Bohr)    :  10.874
constraining FC (au)   :  0.0500

           -------------------------------------------------
          |                 G F N 1 - x T B                 |
           -------------------------------------------------

        Reference                      10.1021/acs.jctc.7b00118
      * Hamiltonian:
        H0-scaling (s, p, d)           1.850000    2.250000    2.000000
        zeta-weighting                 0.000000
      * Dispersion:
        s8                             2.400000
        a1                             0.630000
        a2                             5.000000
        s9                             0.000000
      * Repulsion:
        kExp                           1.500000
        rExp                           1.000000
      * Coulomb:
        alpha                          2.000000
        third order                    atomic
        anisotropic                    false
      * Halogen bond correction:
        rad-scale                      1.300000
        damping                        0.440000


          ...................................................
          :                      SETUP                      :
          :.................................................:
          :  # basis functions                  64          :
          :  # atomic orbitals                  64          :
          :  # shells                           48          :
          :  # electrons                        64          :
          :  # halogen bonds                     0          :
          :  max. iterations                   250          :
          :  Hamiltonian                  GFN1-xTB          :
          :  restarted?                      false          :
          :  GBSA solvation                  false          :
          :  PC potential                    false          :
          :  electronic temp.          300.0000000     K    :
          :  accuracy                    1.0000000          :
          :  -> integral cutoff          0.2500000E+02      :
          :  -> integral neglect         0.1000000E-07      :
          :  -> SCF convergence          0.1000000E-05 Eh   :
          :  -> wf. convergence          0.2000000E-04 e    :
          :  Broyden damping             0.4000000          :
          :  net charge                          0          :
          :  unpaired electrons                  0          :
          ...................................................

 iter      E             dE          RMSdq      gap      omega  full diag
   1    -46.0508141 -0.460508E+02  0.878E+00   13.05       0.0  T
   2    -46.3963482 -0.345534E+00  0.392E+00   10.51       1.0  T
   3    -46.4489648 -0.526166E-01  0.741E-01    8.92       1.0  T
   4    -46.4501859 -0.122104E-02  0.182E-01    9.24       1.0  T
   5    -46.4505173 -0.331418E-03  0.663E-03    9.14       3.1  T
   6    -46.4505176 -0.348784E-06  0.266E-03    9.14       7.7  T
   7    -46.4505177 -0.689385E-07  0.344E-04    9.14      59.3  T
   8    -46.4505177 -0.122040E-08  0.211E-05    9.14     969.0  T
   9    -46.4505177 -0.269296E-11  0.254E-06    9.14    8030.3  T

   *** convergence criteria satisfied after 9 iterations ***

         #    Occupation            Energy/Eh            Energy/eV
      -------------------------------------------------------------
         1        2.0000           -0.7597866             -20.6748
       ...           ...                  ...                  ...
        26        2.0000           -0.5011722             -13.6376
        27        2.0000           -0.4997339             -13.5985
        28        2.0000           -0.4994447             -13.5906
        29        2.0000           -0.4987964             -13.5729
        30        2.0000           -0.4984162             -13.5626
        31        2.0000           -0.4982642             -13.5585
        32        2.0000           -0.4980146             -13.5517 (HOMO)
        33                         -0.1620029              -4.4083 (LUMO)
        34                         -0.1590645              -4.3284
        35                         -0.1586019              -4.3158
        36                         -0.1567846              -4.2663
        37                         -0.1559517              -4.2437
       ...                                ...                  ...
        64                          0.4695050              12.7759
      -------------------------------------------------------------
                  HL-Gap            0.3360117 Eh            9.1433 eV
             Fermi-level           -0.3300087 Eh           -8.9800 eV

 SCC (total)                   0 d,  0 h,  0 min,  0.048 sec
 SCC setup                      ...        0 min,  0.002 sec (  4.167%)
 Dispersion                     ...        0 min,  0.000 sec (  0.000%)
 classical contributions        ...        0 min,  0.000 sec (  0.000%)
 integral evaluation            ...        0 min,  0.004 sec (  8.333%)
 iterations                     ...        0 min,  0.030 sec ( 62.500%)
 molecular gradient             ...        0 min,  0.011 sec ( 22.916%)
 printout                       ...        0 min,  0.001 sec (  2.084%)

         :::::::::::::::::::::::::::::::::::::::::::::::::::::
         ::                     SUMMARY                     ::
         :::::::::::::::::::::::::::::::::::::::::::::::::::::
         :: total energy             -46.150741068902 Eh    ::
         :: gradient norm              0.018428942886 Eh/a0 ::
         :: HOMO-LUMO gap              9.143344879142 eV    ::
         ::.................................................::
         :: SCC energy               -46.450517716606 Eh    ::
         :: -> electrostatic           0.400230582472 Eh    ::
         :: repulsion energy           0.302024926085 Eh    ::
         :: dispersion energy         -0.002248278381 Eh    ::
         :: halogen bond corr.         0.000000000000 Eh    ::
         :: add. restraining           0.000000000000 Eh    ::
         :: total charge              -0.000000000000 e     ::
         :::::::::::::::::::::::::::::::::::::::::::::::::::::

           -------------------------------------------------
          |                Property Printout                |
           -------------------------------------------------
 Periodic properties

           -------------------------------------------------
          | TOTAL ENERGY              -46.150741068902 Eh   |
          | GRADIENT NORM               0.018428942886 Eh/α |
          | HOMO-LUMO GAP               9.143344879142 eV   |
           -------------------------------------------------
           ------------------------------------------------- 
          |               Molecular Dynamics                |
           ------------------------------------------------- 
 trajectories on xtb.trj or xtb.trj.<n>
 
 MD time /ps        :    2.00
 dt /fs             :    0.50
 SCC accuracy       :    2.00
 temperature /K     :  300.00
 max steps          :  4000
 block length (av.) :  5000
 dumpstep(trj) /fs  :   50.00   100
 dumpstep(coords)/fs: 1000.00  2000
 H atoms mass (amu) :     1
 # deg. of freedom  :    72
 SHAKE off
 Berendsen THERMOSTAT on
         time (ps)    <Epot>      Ekin   <T>   T     Etot
      0    0.00      0.00000   0.1026    0.    0.   -46.04814
est. speed in wall clock h for 100 ps :  2.15
    200    0.10    -45.90455   0.0749  693.  657.   -46.06448
    400    0.20    -46.02074   0.0739  672.  648.   -46.06837
    600    0.30    -46.05971   0.0649  645.  569.   -46.07755
    800    0.40    -46.08246   0.0703  645.  616.   -45.85231
   1000    0.50    -37.10456   0.0689  645.  605.     0.06893
   1200    0.60    -30.92562   0.0593  631.  520.     0.05931
   1400    0.70    -26.51083   0.0545  612.  478.     0.05448
   1600    0.80    -23.19904   0.0505  593.  443.     0.05053
   1800    0.90    -20.62280   0.0459  574.  402.     0.04586
   2000    1.00    -18.56155   0.0421  556.  369.     0.04206
   2200    1.10    -16.87490   0.0401  538.  352.     0.04013
   2400    1.20    -15.46925   0.0389  522.  341.     0.03887
   2600    1.30    -14.27976   0.0379  508.  332.     0.03785
   2800    1.40    -13.26014   0.0363  495.  319.     0.03635
   3000    1.50    -12.37643   0.0337  482.  296.     0.03372
   3200    1.60    -11.60314   0.0338  471.  296.     0.03376
   3400    1.70    -10.92081   0.0336  460.  295.     0.03364
   3600    1.80    -10.31426   0.0336  451.  295.     0.03358
   3800    1.90     -9.77155   0.0330  443.  289.     0.03300
 average properties 
 Epot               :  -9.28309570055953     
 Epot (accurate SCC):  -9.27833282767360     
 Ekin               :  4.960476189060379E-002
 Etot               :  -9.23349093866893     
 T                  :   435.109991128611     
 thermostating problem
 normal exit of md()
########################################################################
[ERROR] Runtime exception occurred
-12782- xtb_calculator_singlepoint: Electronic structure method terminated
-12781- scf: Setup of Coulomb evaluator failed
-12780- type_coulomb_setupBoundaryConditions: Could not setup numerical thresholds
-12779- type_latticepoint_update: Could not generate lattice points
-12778- xtb_calculator_singlepoint: Electronic structure method terminated
-12777- scf: Setup of Coulomb evaluator failed
-12776- type_coulomb_setupBoundaryConditions: Could not setup numerical thresholds
-12775- type_latticepoint_update: Could not generate lattice points
-12774- xtb_calculator_singlepoint: Electronic structure method terminated
-12773- scf: Setup of Coulomb evaluator failed
-12772- type_coulomb_setupBoundaryConditions: Could not setup numerical thresholds
-12771- type_latticepoint_update: Could not generate lattice points
-12770- xtb_calculator_singlepoint: Electronic structure method terminated
-12769- scf: Setup of Coulomb evaluator failed
-12768- type_coulomb_setupBoundaryConditions: Could not setup numerical thresholds
-12767- type_latticepoint_update: Could not generate lattice points
-12766- xtb_calculator_singlepoint: Electronic structure method terminated
-12765- scf: Setup of Coulomb evaluator failed
-12764- type_coulomb_setupBoundaryConditions: Could not setup numerical thresholds
-12763- type_latticepoint_update: Could not generate lattice points
-12762- xtb_calculator_singlepoint: Electronic structure method terminated
-12761- scf: Setup of Coulomb evaluator failed
-12760- type_coulomb_setupBoundaryConditions: Could not setup numerical thresholds
-12759- type_latticepoint_update: Could not generate lattice points
-12758- xtb_calculator_singlepoint: Electronic structure method terminated
-12757- scf: Setup of Coulomb evaluator failed
-12756- type_coulomb_setupBoundaryConditions: Could not setup numerical thresholds
-12755- type_latticepoint_update: Could not generate lattice points
-12754- xtb_calculator_singlepoint: Electronic structure method terminated
-12753- scf: Setup of Coulomb evaluator failed
-12752- type_coulomb_setupBoundaryConditions: Could not setup numerical thresholds
-12751- type_latticepoint_update: Could not generate lattice points
-12750- xtb_calculator_singlepoint: Electronic structure method terminated
-12749- scf: Setup of Coulomb evaluator failed
-12748- type_coulomb_setupBoundaryConditions: Could not setup numerical thresholds
-12747- type_latticepoint_update: Could not generate lattice points
-12746- xtb_calculator_singlepoint: Electronic structure method terminated
-12745- scf: Setup of Coulomb evaluator failed
-12744- type_coulomb_setupBoundaryConditions: Could not setup numerical thresholds
-12743- type_latticepoint_update: Could not generate lattice points
-12742- xtb_calculator_singlepoint: Electronic structure method terminated
-12741- scf: Setup of Coulomb evaluator failed
-12740- type_coulomb_setupBoundaryConditions: Could not setup numerical thresholds
-12739- type_latticepoint_update: Could not generate lattice points
-12738- xtb_calculator_singlepoint: Electronic structure method terminated
-12737- scf: Setup of Coulomb evaluator failed
-12736- type_coulomb_setupBoundaryConditions: Could not setup numerical thresholds
-12735- type_latticepoint_update: Could not generate lattice points
-12734- xtb_calculator_singlepoint: Electronic structure method terminated
-12733- scf: Setup of Coulomb evaluator failed
-12732- type_coulomb_setupBoundaryConditions: Could not setup numerical thresholds
-12731- type_latticepoint_update: Could not generate lattice points
-12730- xtb_calculator_singlepoint: Electronic structure method terminated
-12729- scf: Setup of Coulomb evaluator failed
-12728- type_coulomb_setupBoundaryConditions: Could not setup numerical thresholds
-12727- type_latticepoint_update: Could not generate lattice points
-12726- xtb_calculator_singlepoint: Electronic structure method terminated
-12725- scf: Setup of Coulomb evaluator failed
-12724- type_coulomb_setupBoundaryConditions: Could not setup numerical thresholds
-12723- type_latticepoint_update: Could not generate lattice points
-12722- xtb_calculator_singlepoint: Electronic structure method terminated
-12721- scf: Setup of Coulomb evaluator failed
-12720- type_coulomb_setupBoundaryConditions: Could not setup numerical thresholds
-12719- type_latticepoint_update: Could not generate lattice points
-12718- xtb_calculator_singlepoint: Electronic structure method terminated
-12717- scf: Setup of Coulomb evaluator failed
-12716- type_coulomb_setupBoundaryConditions: Could not setup numerical thresholds
-12715- type_latticepoint_update: Could not generate lattice points
-12714- xtb_calculator_singlepoint: Electronic structure method terminated
-12713- scf: Setup of Coulomb evaluator failed
-12712- type_coulomb_setupBoundaryConditions: Could not setup numerical thresholds
-12711- type_latticepoint_update: Could not generate lattice points
-12710- xtb_calculator_singlepoint: Electronic structure method terminated
-12709- scf: Setup of Coulomb evaluator failed
-12708- type_coulomb_setupBoundaryConditions: Could not setup numerical thresholds
-12707- type_latticepoint_update: Could not generate lattice points
-12706- xtb_calculator_singlepoint: Electronic structure method terminated
-12705- scf: Setup of Coulomb evaluator failed
-12704- type_coulomb_setupBoundaryConditions: Could not setup numerical thresholds
-12703- type_latticepoint_update: Could not generate lattice points
-12702- xtb_calculator_singlepoint: Electronic structure method terminated
-12701- scf: Setup of Coulomb evaluator failed
-12700- type_coulomb_setupBoundaryConditions: Could not setup numerical thresholds
-12699- type_latticepoint_update: Could not generate lattice points
-12698- xtb_calculator_singlepoint: Electronic structure method terminated
-12697- scf: Setup of Coulomb evaluator failed
-12696- type_coulomb_setupBoundaryConditions: Could not setup numerical thresholds
-12695- type_latticepoint_update: Could not generate lattice points
-12694- xtb_calculator_singlepoint: Electronic structure method terminated
-12693- scf: Setup of Coulomb evaluator failed
-12692- type_coulomb_setupBoundaryConditions: Could not setup numerical thresholds
-12691- type_latticepoint_update: Could not generate lattice points
-12690- xtb_calculator_singlepoint: Electronic structure method terminated
-12689- scf: Setup of Coulomb evaluator failed
-12688- type_coulomb_setupBoundaryConditions: Could not setup numerical thresholds
-12687- type_latticepoint_update: Could not generate lattice points
-12686- xtb_calculator_singlepoint: Electronic structure method terminated
-12685- scf: Setup of Coulomb evaluator failed
-12684- type_coulomb_setupBoundaryConditions: Could not setup numerical thresholds
-12683- type_latticepoint_update: Could not generate lattice points
-12682- xtb_calculator_singlepoint: Electronic structure method terminated
-12681- scf: Setup of Coulomb evaluator failed
-12680- type_coulomb_setupBoundaryConditions: Could not setup numerical thresholds
-12679- type_latticepoint_update: Could not generate lattice points
-12678- xtb_calculator_singlepoint: Electronic structure method terminated
-12677- scf: Setup of Coulomb evaluator failed
-12676- type_coulomb_setupBoundaryConditions: Could not setup numerical thresholds
-12675- type_latticepoint_update: Could not generate lattice points
-12674- xtb_calculator_singlepoint: Electronic structure method terminated
-12673- scf: Setup of Coulomb evaluator failed
-12672- type_coulomb_setupBoundaryConditions: Could not setup numerical thresholds
-12671- type_latticepoint_update: Could not generate lattice points
-12670- xtb_calculator_singlepoint: Electronic structure method terminated
-12669- scf: Setup of Coulomb evaluator failed
-12668- type_coulomb_setupBoundaryConditions: Could not setup numerical thresholds
-12667- type_latticepoint_update: Could not generate lattice points
-12666- xtb_calculator_singlepoint: Electronic structure method terminated
-12665- scf: Setup of Coulomb evaluator failed
-12664- type_coulomb_setupBoundaryConditions: Could not setup numerical thresholds
-12663- type_latticepoint_update: Could not generate lattice points
-12662- xtb_calculator_singlepoint: Electronic structure method terminated
-12661- scf: Setup of Coulomb evaluator failed
-12660- type_coulomb_setupBoundaryConditions: Could not setup numerical thresholds
-12659- type_latticepoint_update: Could not generate lattice points
-12658- xtb_calculator_singlepoint: Electronic structure method terminated
-12657- scf: Setup of Coulomb evaluator failed
-12656- type_coulomb_setupBoundaryConditions: Could not setup numerical thresholds
-12655- type_latticepoint_update: Could not generate lattice points
-12654- xtb_calculator_singlepoint: Electronic structure method terminated
-12653- scf: Setup of Coulomb evaluator failed
-12652- type_coulomb_setupBoundaryConditions: Could not setup numerical thresholds
-12651- type_latticepoint_update: Could not generate lattice points
-12650- xtb_calculator_singlepoint: Electronic structure method terminated
-12649- scf: Setup of Coulomb evaluator failed
-12648- type_coulomb_setupBoundaryConditions: Could not setup numerical thresholds
-12647- type_latticepoint_update: Could not generate lattice points
-12646- xtb_calculator_singlepoint: Electronic structure method terminated
-12645- scf: Setup of Coulomb evaluator failed
-12644- type_coulomb_setupBoundaryConditions: Could not setup numerical thresholds
-12643- type_latticepoint_update: Could not generate lattice points
-12642- xtb_calculator_singlepoint: Electronic structure method terminated
-12641- scf: Setup of Coulomb evaluator failed
-12640- type_coulomb_setupBoundaryConditions: Could not setup numerical thresholds
-12639- type_latticepoint_update: Could not generate lattice points
-12638- xtb_calculator_singlepoint: Electronic structure method terminated
-12637- scf: Setup of Coulomb evaluator failed
-12636- type_coulomb_setupBoundaryConditions: Could not setup numerical thresholds
-12635- type_latticepoint_update: Could not generate lattice points
-12634- xtb_calculator_singlepoint: Electronic structure method terminated
-12633- scf: Setup of Coulomb evaluator failed
-12632- type_coulomb_setupBoundaryConditions: Could not setup numerical thresholds
-12631- type_latticepoint_update: Could not generate lattice points
-12630- xtb_calculator_singlepoint: Electronic structure method terminated
-12629- scf: Setup of Coulomb evaluator failed
-12628- type_coulomb_setupBoundaryConditions: Could not setup numerical thresholds
-12627- type_latticepoint_update: Could not generate lattice points
-12626- xtb_calculator_singlepoint: Electronic structure method terminated
-12625- scf: Setup of Coulomb evaluator failed
-12624- type_coulomb_setupBoundaryConditions: Could not setup numerical thresholds
-12623- type_latticepoint_update: Could not generate lattice points
-12622- xtb_calculator_singlepoint: Electronic structure method terminated
-12621- scf: Setup of Coulomb evaluator failed
-12620- type_coulomb_setupBoundaryConditions: Could not setup numerical thresholds
-12619- type_latticepoint_update: Could not generate lattice points
-12618- xtb_calculator_singlepoint: Electronic structure method terminated
-12617- scf: Setup of Coulomb evaluator failed
-12616- type_coulomb_setupBoundaryConditions: Could not setup numerical thresholds
-12615- type_latticepoint_update: Could not generate lattice points
-12614- xtb_calculator_singlepoint: Electronic structure method terminated
-12613- scf: Setup of Coulomb evaluator failed
-12612- type_coulomb_setupBoundaryConditions: Could not setup numerical thresholds
-12611- type_latticepoint_update: Could not generate lattice points
-12610- xtb_calculator_singlepoint: Electronic structure method terminated
-12609- scf: Setup of Coulomb evaluator failed
-12608- type_coulomb_setupBoundaryConditions: Could not setup numerical thresholds
-12607- type_latticepoint_update: Could not generate lattice points
-12606- xtb_calculator_singlepoint: Electronic structure method terminated
-12605- scf: Setup of Coulomb evaluator failed
-12604- type_coulomb_setupBoundaryConditions: Could not setup numerical thresholds
-12603- type_latticepoint_update: Could not generate lattice points
-12602- xtb_calculator_singlepoint: Electronic structure method terminated
-12601- scf: Setup of Coulomb evaluator failed
-12600- type_coulomb_setupBoundaryConditions: Could not setup numerical thresholds
-12599- type_latticepoint_update: Could not generate lattice points
-12598- xtb_calculator_singlepoint: Electronic structure method terminated
-12597- scf: Setup of Coulomb evaluator failed
-12596- type_coulomb_setupBoundaryConditions: Could not setup numerical thresholds
-12595- type_latticepoint_update: Could not generate lattice points
-12594- xtb_calculator_singlepoint: Electronic structure method terminated
-12593- scf: Setup of Coulomb evaluator failed
-12592- type_coulomb_setupBoundaryConditions: Could not setup numerical thresholds
-12591- type_latticepoint_update: Could not generate lattice points
-12590- xtb_calculator_singlepoint: Electronic structure method terminated
-12589- scf: Setup of Coulomb evaluator failed
-12588- type_coulomb_setupBoundaryConditions: Could not setup numerical thresholds
-12587- type_latticepoint_update: Could not generate lattice points
-12586- xtb_calculator_singlepoint: Electronic structure method terminated
-12585- scf: Setup of Coulomb evaluator failed
-12584- type_coulomb_setupBoundaryConditions: Could not setup numerical thresholds
-12583- type_latticepoint_update: Could not generate lattice points
-12582- xtb_calculator_singlepoint: Electronic structure method terminated
-12581- scf: Setup of Coulomb evaluator failed
-12580- type_coulomb_setupBoundaryConditions: Could not setup numerical thresholds
-12579- type_latticepoint_update: Could not generate lattice points
-12578- xtb_calculator_singlepoint: Electronic structure method terminated
-12577- scf: Setup of Coulomb evaluator failed
-12576- type_coulomb_setupBoundaryConditions: Could not setup numerical thresholds
-12575- type_latticepoint_update: Could not generate lattice points
-12574- xtb_calculator_singlepoint: Electronic structure method terminated
-12573- scf: Setup of Coulomb evaluator failed
-12572- type_coulomb_setupBoundaryConditions: Could not setup numerical thresholds
-12571- type_latticepoint_update: Could not generate lattice points
-12570- xtb_calculator_singlepoint: Electronic structure method terminated
-12569- scf: Setup of Coulomb evaluator failed
-12568- type_coulomb_setupBoundaryConditions: Could not setup numerical thresholds
-12567- type_latticepoint_update: Could not generate lattice points
-12566- xtb_calculator_singlepoint: Electronic structure method terminated
-12565- scf: Setup of Coulomb evaluator failed
-12564- type_coulomb_setupBoundaryConditions: Could not setup numerical thresholds
-12563- type_latticepoint_update: Could not generate lattice points
-12562- xtb_calculator_singlepoint: Electronic structure method terminated
-12561- scf: Setup of Coulomb evaluator failed
-12560- type_coulomb_setupBoundaryConditions: Could not setup numerical thresholds
-12559- type_latticepoint_update: Could not generate lattice points
-12558- xtb_calculator_singlepoint: Electronic structure method terminated
-12557- scf: Setup of Coulomb evaluator failed
-12556- type_coulomb_setupBoundaryConditions: Could not setup numerical thresholds
-12555- type_latticepoint_update: Could not generate lattice points
-12554- xtb_calculator_singlepoint: Electronic structure method terminated
-12553- scf: Setup of Coulomb evaluator failed
-12552- type_coulomb_setupBoundaryConditions: Could not setup numerical thresholds
-12551- type_latticepoint_update: Could not generate lattice points
-12550- xtb_calculator_singlepoint: Electronic structure method terminated
-12549- scf: Setup of Coulomb evaluator failed
-12548- type_coulomb_setupBoundaryConditions: Could not setup numerical thresholds
-12547- type_latticepoint_update: Could not generate lattice points
-12546- xtb_calculator_singlepoint: Electronic structure method terminated
-12545- scf: Setup of Coulomb evaluator failed
-12544- type_coulomb_setupBoundaryConditions: Could not setup numerical thresholds
-12543- type_latticepoint_update: Could not generate lattice points
-12542- xtb_calculator_singlepoint: Electronic structure method terminated
-12541- scf: Setup of Coulomb evaluator failed
-12540- type_coulomb_setupBoundaryConditions: Could not setup numerical thresholds
-12539- type_latticepoint_update: Could not generate lattice points
-12538- xtb_calculator_singlepoint: Electronic structure method terminated
-12537- scf: Setup of Coulomb evaluator failed
-12536- type_coulomb_setupBoundaryConditions: Could not setup numerical thresholds
-12535- type_latticepoint_update: Could not generate lattice points
-12534- xtb_calculator_singlepoint: Electronic structure method terminated
-12533- scf: Setup of Coulomb evaluator failed
-12532- type_coulomb_setupBoundaryConditions: Could not setup numerical thresholds
-12531- type_latticepoint_update: Could not generate lattice points
-12530- xtb_calculator_singlepoint: Electronic structure method terminated
-12529- scf: Setup of Coulomb evaluator failed
-12528- type_coulomb_setupBoundaryConditions: Could not setup numerical thresholds
-12527- type_latticepoint_update: Could not generate lattice points
-12526- xtb_calculator_singlepoint: Electronic structure method terminated
-12525- scf: Setup of Coulomb evaluator failed
-12524- type_coulomb_setupBoundaryConditions: Could not setup numerical thresholds
-12523- type_latticepoint_update: Could not generate lattice points
-12522- xtb_calculator_singlepoint: Electronic structure method terminated
-12521- scf: Setup of Coulomb evaluator failed
-12520- type_coulomb_setupBoundaryConditions: Could not setup numerical thresholds
-12519- type_latticepoint_update: Could not generate lattice points
-12518- xtb_calculator_singlepoint: Electronic structure method terminated
-12517- scf: Setup of Coulomb evaluator failed
-12516- type_coulomb_setupBoundaryConditions: Could not setup numerical thresholds
-12515- type_latticepoint_update: Could not generate lattice points
-12514- xtb_calculator_singlepoint: Electronic structure method terminated
-12513- scf: Setup of Coulomb evaluator failed
-12512- type_coulomb_setupBoundaryConditions: Could not setup numerical thresholds
-12511- type_latticepoint_update: Could not generate lattice points
-12510- xtb_calculator_singlepoint: Electronic structure method terminated
-12509- scf: Setup of Coulomb evaluator failed
-12508- type_coulomb_setupBoundaryConditions: Could not setup numerical thresholds
-12507- type_latticepoint_update: Could not generate lattice points
-12506- xtb_calculator_singlepoint: Electronic structure method terminated
-12505- scf: Setup of Coulomb evaluator failed
-12504- type_coulomb_setupBoundaryConditions: Could not setup numerical thresholds
-12503- type_latticepoint_update: Could not generate lattice points
-12502- xtb_calculator_singlepoint: Electronic structure method terminated
-12501- scf: Setup of Coulomb evaluator failed
-12500- type_coulomb_setupBoundaryConditions: Could not setup numerical thresholds
-12499- type_latticepoint_update: Could not generate lattice points
-12498- xtb_calculator_singlepoint: Electronic structure method terminated
-12497- scf: Setup of Coulomb evaluator failed
-12496- type_coulomb_setupBoundaryConditions: Could not setup numerical thresholds
-12495- type_latticepoint_update: Could not generate lattice points
-12494- xtb_calculator_singlepoint: Electronic structure method terminated
-12493- scf: Setup of Coulomb evaluator failed
-12492- type_coulomb_setupBoundaryConditions: Could not setup numerical thresholds
-12491- type_latticepoint_update: Could not generate lattice points
-12490- xtb_calculator_singlepoint: Electronic structure method terminated
-12489- scf: Setup of Coulomb evaluator failed
-12488- type_coulomb_setupBoundaryConditions: Could not setup numerical thresholds
-12487- type_latticepoint_update: Could not generate lattice points
-12486- xtb_calculator_singlepoint: Electronic structure method terminated
-12485- scf: Setup of Coulomb evaluator failed
-12484- type_coulomb_setupBoundaryConditions: Could not setup numerical thresholds
-12483- type_latticepoint_update: Could not generate lattice points
-12482- xtb_calculator_singlepoint: Electronic structure method terminated
-12481- scf: Setup of Coulomb evaluator failed
-12480- type_coulomb_setupBoundaryConditions: Could not setup numerical thresholds
-12479- type_latticepoint_update: Could not generate lattice points
-12478- xtb_calculator_singlepoint: Electronic structure method terminated
-12477- scf: Setup of Coulomb evaluator failed
-12476- type_coulomb_setupBoundaryConditions: Could not setup numerical thresholds
-12475- type_latticepoint_update: Could not generate lattice points
-12474- xtb_calculator_singlepoint: Electronic structure method terminated
-12473- scf: Setup of Coulomb evaluator failed
-12472- type_coulomb_setupBoundaryConditions: Could not setup numerical thresholds
-12471- type_latticepoint_update: Could not generate lattice points
-12470- xtb_calculator_singlepoint: Electronic structure method terminated
-12469- scf: Setup of Coulomb evaluator failed
-12468- type_coulomb_setupBoundaryConditions: Could not setup numerical thresholds
-12467- type_latticepoint_update: Could not generate lattice points
-12466- xtb_calculator_singlepoint: Electronic structure method terminated
-12465- scf: Setup of Coulomb evaluator failed
-12464- type_coulomb_setupBoundaryConditions: Could not setup numerical thresholds
-12463- type_latticepoint_update: Could not generate lattice points
-12462- xtb_calculator_singlepoint: Electronic structure method terminated
-12461- scf: Setup of Coulomb evaluator failed
-12460- type_coulomb_setupBoundaryConditions: Could not setup numerical thresholds
-12459- type_latticepoint_update: Could not generate lattice points
-12458- xtb_calculator_singlepoint: Electronic structure method terminated
-12457- scf: Setup of Coulomb evaluator failed
-12456- type_coulomb_setupBoundaryConditions: Could not setup numerical thresholds
-12455- type_latticepoint_update: Could not generate lattice points
-12454- xtb_calculator_singlepoint: Electronic structure method terminated
-12453- scf: Setup of Coulomb evaluator failed
-12452- type_coulomb_setupBoundaryConditions: Could not setup numerical thresholds
-12451- type_latticepoint_update: Could not generate lattice points
-12450- xtb_calculator_singlepoint: Electronic structure method terminated
-12449- scf: Setup of Coulomb evaluator failed
-12448- type_coulomb_setupBoundaryConditions: Could not setup numerical thresholds
-12447- type_latticepoint_update: Could not generate lattice points
-12446- xtb_calculator_singlepoint: Electronic structure method terminated
-12445- scf: Setup of Coulomb evaluator failed
-12444- type_coulomb_setupBoundaryConditions: Could not setup numerical thresholds
-12443- type_latticepoint_update: Could not generate lattice points
-12442- xtb_calculator_singlepoint: Electronic structure method terminated
-12441- scf: Setup of Coulomb evaluator failed
-12440- type_coulomb_setupBoundaryConditions: Could not setup numerical thresholds
-12439- type_latticepoint_update: Could not generate lattice points
-12438- xtb_calculator_singlepoint: Electronic structure method terminated
-12437- scf: Setup of Coulomb evaluator failed
-12436- type_coulomb_setupBoundaryConditions: Could not setup numerical thresholds
-12435- type_latticepoint_update: Could not generate lattice points
-12434- xtb_calculator_singlepoint: Electronic structure method terminated
-12433- scf: Setup of Coulomb evaluator failed
-12432- type_coulomb_setupBoundaryConditions: Could not setup numerical thresholds
-12431- type_latticepoint_update: Could not generate lattice points
-12430- xtb_calculator_singlepoint: Electronic structure method terminated
-12429- scf: Setup of Coulomb evaluator failed
-12428- type_coulomb_setupBoundaryConditions: Could not setup numerical thresholds
-12427- type_latticepoint_update: Could not generate lattice points
-12426- xtb_calculator_singlepoint: Electronic structure method terminated
-12425- scf: Setup of Coulomb evaluator failed
-12424- type_coulomb_setupBoundaryConditions: Could not setup numerical thresholds
-12423- type_latticepoint_update: Could not generate lattice points
-12422- xtb_calculator_singlepoint: Electronic structure method terminated
-12421- scf: Setup of Coulomb evaluator failed
-12420- type_coulomb_setupBoundaryConditions: Could not setup numerical thresholds
-12419- type_latticepoint_update: Could not generate lattice points
-12418- xtb_calculator_singlepoint: Electronic structure method terminated
-12417- scf: Setup of Coulomb evaluator failed
-12416- type_coulomb_setupBoundaryConditions: Could not setup numerical thresholds
-12415- type_latticepoint_update: Could not generate lattice points
-12414- xtb_calculator_singlepoint: Electronic structure method terminated
-12413- scf: Setup of Coulomb evaluator failed
-12412- type_coulomb_setupBoundaryConditions: Could not setup numerical thresholds
-12411- type_latticepoint_update: Could not generate lattice points
-12410- xtb_calculator_singlepoint: Electronic structure method terminated
-12409- scf: Setup of Coulomb evaluator failed
-12408- type_coulomb_setupBoundaryConditions: Could not setup numerical thresholds
-12407- type_latticepoint_update: Could not generate lattice points
-12406- xtb_calculator_singlepoint: Electronic structure method terminated
-12405- scf: Setup of Coulomb evaluator failed
-12404- type_coulomb_setupBoundaryConditions: Could not setup numerical thresholds
-12403- type_latticepoint_update: Could not generate lattice points
-12402- xtb_calculator_singlepoint: Electronic structure method terminated
-12401- scf: Setup of Coulomb evaluator failed
-12400- type_coulomb_setupBoundaryConditions: Could not setup numerical thresholds
-12399- type_latticepoint_update: Could not generate lattice points
-12398- xtb_calculator_singlepoint: Electronic structure method terminated
-12397- scf: Setup of Coulomb evaluator failed
-12396- type_coulomb_setupBoundaryConditions: Could not setup numerical thresholds
-12395- type_latticepoint_update: Could not generate lattice points
-12394- xtb_calculator_singlepoint: Electronic structure method terminated
-12393- scf: Setup of Coulomb evaluator failed
-12392- type_coulomb_setupBoundaryConditions: Could not setup numerical thresholds
-12391- type_latticepoint_update: Could not generate lattice points
-12390- xtb_calculator_singlepoint: Electronic structure method terminated
-12389- scf: Setup of Coulomb evaluator failed
-12388- type_coulomb_setupBoundaryConditions: Could not setup numerical thresholds
-12387- type_latticepoint_update: Could not generate lattice points
-12386- xtb_calculator_singlepoint: Electronic structure method terminated
-12385- scf: Setup of Coulomb evaluator failed
-12384- type_coulomb_setupBoundaryConditions: Could not setup numerical thresholds
-12383- type_latticepoint_update: Could not generate lattice points
-12382- xtb_calculator_singlepoint: Electronic structure method terminated
-12381- scf: Setup of Coulomb evaluator failed
-12380- type_coulomb_setupBoundaryConditions: Could not setup numerical thresholds
-12379- type_latticepoint_update: Could not generate lattice points
-12378- xtb_calculator_singlepoint: Electronic structure method terminated
-12377- scf: Setup of Coulomb evaluator failed
-12376- type_coulomb_setupBoundaryConditions: Could not setup numerical thresholds
-12375- type_latticepoint_update: Could not generate lattice points
-12374- xtb_calculator_singlepoint: Electronic structure method terminated
-12373- scf: Setup of Coulomb evaluator failed
-12372- type_coulomb_setupBoundaryConditions: Could not setup numerical thresholds
-12371- type_latticepoint_update: Could not generate lattice points
-12370- xtb_calculator_singlepoint: Electronic structure method terminated
-12369- scf: Setup of Coulomb evaluator failed
-12368- type_coulomb_setupBoundaryConditions: Could not setup numerical thresholds
-12367- type_latticepoint_update: Could not generate lattice points
-12366- xtb_calculator_singlepoint: Electronic structure method terminated
-12365- scf: Setup of Coulomb evaluator failed
-12364- type_coulomb_setupBoundaryConditions: Could not setup numerical thresholds
-12363- type_latticepoint_update: Could not generate lattice points
-12362- xtb_calculator_singlepoint: Electronic structure method terminated
-12361- scf: Setup of Coulomb evaluator failed
-12360- type_coulomb_setupBoundaryConditions: Could not setup numerical thresholds
-12359- type_latticepoint_update: Could not generate lattice points
-12358- xtb_calculator_singlepoint: Electronic structure method terminated
-12357- scf: Setup of Coulomb evaluator failed
-12356- type_coulomb_setupBoundaryConditions: Could not setup numerical thresholds
-12355- type_latticepoint_update: Could not generate lattice points
-12354- xtb_calculator_singlepoint: Electronic structure method terminated
-12353- scf: Setup of Coulomb evaluator failed
-12352- type_coulomb_setupBoundaryConditions: Could not setup numerical thresholds
-12351- type_latticepoint_update: Could not generate lattice points
-12350- xtb_calculator_singlepoint: Electronic structure method terminated
-12349- scf: Setup of Coulomb evaluator failed
-12348- type_coulomb_setupBoundaryConditions: Could not setup numerical thresholds
-12347- type_latticepoint_update: Could not generate lattice points
-12346- xtb_calculator_singlepoint: Electronic structure method terminated
-12345- scf: Setup of Coulomb evaluator failed
-12344- type_coulomb_setupBoundaryConditions: Could not setup numerical thresholds
-12343- type_latticepoint_update: Could not generate lattice points
-12342- xtb_calculator_singlepoint: Electronic structure method terminated
-12341- scf: Setup of Coulomb evaluator failed
-12340- type_coulomb_setupBoundaryConditions: Could not setup numerical thresholds
-12339- type_latticepoint_update: Could not generate lattice points
-12338- xtb_calculator_singlepoint: Electronic structure method terminated
-12337- scf: Setup of Coulomb evaluator failed
-12336- type_coulomb_setupBoundaryConditions: Could not setup numerical thresholds
-12335- type_latticepoint_update: Could not generate lattice points
-12334- xtb_calculator_singlepoint: Electronic structure method terminated
-12333- scf: Setup of Coulomb evaluator failed
-12332- type_coulomb_setupBoundaryConditions: Could not setup numerical thresholds
-12331- type_latticepoint_update: Could not generate lattice points
-12330- xtb_calculator_singlepoint: Electronic structure method terminated
-12329- scf: Setup of Coulomb evaluator failed
-12328- type_coulomb_setupBoundaryConditions: Could not setup numerical thresholds
-12327- type_latticepoint_update: Could not generate lattice points
-12326- xtb_calculator_singlepoint: Electronic structure method terminated
-12325- scf: Setup of Coulomb evaluator failed
-12324- type_coulomb_setupBoundaryConditions: Could not setup numerical thresholds
-12323- type_latticepoint_update: Could not generate lattice points
-12322- xtb_calculator_singlepoint: Electronic structure method terminated
-12321- scf: Setup of Coulomb evaluator failed
-12320- type_coulomb_setupBoundaryConditions: Could not setup numerical thresholds
-12319- type_latticepoint_update: Could not generate lattice points
-12318- xtb_calculator_singlepoint: Electronic structure method terminated
-12317- scf: Setup of Coulomb evaluator failed
-12316- type_coulomb_setupBoundaryConditions: Could not setup numerical thresholds
-12315- type_latticepoint_update: Could not generate lattice points
-12314- xtb_calculator_singlepoint: Electronic structure method terminated
-12313- scf: Setup of Coulomb evaluator failed
-12312- type_coulomb_setupBoundaryConditions: Could not setup numerical thresholds
-12311- type_latticepoint_update: Could not generate lattice points
-12310- xtb_calculator_singlepoint: Electronic structure method terminated
-12309- scf: Setup of Coulomb evaluator failed
-12308- type_coulomb_setupBoundaryConditions: Could not setup numerical thresholds
-12307- type_latticepoint_update: Could not generate lattice points
-12306- xtb_calculator_singlepoint: Electronic structure method terminated
-12305- scf: Setup of Coulomb evaluator failed
-12304- type_coulomb_setupBoundaryConditions: Could not setup numerical thresholds
-12303- type_latticepoint_update: Could not generate lattice points
-12302- xtb_calculator_singlepoint: Electronic structure method terminated
-12301- scf: Setup of Coulomb evaluator failed
-12300- type_coulomb_setupBoundaryConditions: Could not setup numerical thresholds
-12299- type_latticepoint_update: Could not generate lattice points
-12298- xtb_calculator_singlepoint: Electronic structure method terminated
-12297- scf: Setup of Coulomb evaluator failed
-12296- type_coulomb_setupBoundaryConditions: Could not setup numerical thresholds
-12295- type_latticepoint_update: Could not generate lattice points
-12294- xtb_calculator_singlepoint: Electronic structure method terminated
-12293- scf: Setup of Coulomb evaluator failed
-12292- type_coulomb_setupBoundaryConditions: Could not setup numerical thresholds
-12291- type_latticepoint_update: Could not generate lattice points
-12290- xtb_calculator_singlepoint: Electronic structure method terminated
-12289- scf: Setup of Coulomb evaluator failed
-12288- type_coulomb_setupBoundaryConditions: Could not setup numerical thresholds
-12287- type_latticepoint_update: Could not generate lattice points
-12286- xtb_calculator_singlepoint: Electronic structure method terminated
-12285- scf: Setup of Coulomb evaluator failed
-12284- type_coulomb_setupBoundaryConditions: Could not setup numerical thresholds
-12283- type_latticepoint_update: Could not generate lattice points
-12282- xtb_calculator_singlepoint: Electronic structure method terminated
-12281- scf: Setup of Coulomb evaluator failed
-12280- type_coulomb_setupBoundaryConditions: Could not setup numerical thresholds
-12279- type_latticepoint_update: Could not generate lattice points
-12278- xtb_calculator_singlepoint: Electronic structure method terminated
-12277- scf: Setup of Coulomb evaluator failed
-12276- type_coulomb_setupBoundaryConditions: Could not setup numerical thresholds
-12275- type_latticepoint_update: Could not generate lattice points
-12274- xtb_calculator_singlepoint: Electronic structure method terminated
-12273- scf: Setup of Coulomb evaluator failed
-12272- type_coulomb_setupBoundaryConditions: Could not setup numerical thresholds
-12271- type_latticepoint_update: Could not generate lattice points
-12270- xtb_calculator_singlepoint: Electronic structure method terminated
-12269- scf: Setup of Coulomb evaluator failed
-12268- type_coulomb_setupBoundaryConditions: Could not setup numerical thresholds
-12267- type_latticepoint_update: Could not generate lattice points
-12266- xtb_calculator_singlepoint: Electronic structure method terminated
-12265- scf: Setup of Coulomb evaluator failed
-12264- type_coulomb_setupBoundaryConditions: Could not setup numerical thresholds
-12263- type_latticepoint_update: Could not generate lattice points
-12262- xtb_calculator_singlepoint: Electronic structure method terminated
-12261- scf: Setup of Coulomb evaluator failed
-12260- type_coulomb_setupBoundaryConditions: Could not setup numerical thresholds
-12259- type_latticepoint_update: Could not generate lattice points
-12258- xtb_calculator_singlepoint: Electronic structure method terminated
-12257- scf: Setup of Coulomb evaluator failed
-12256- type_coulomb_setupBoundaryConditions: Could not setup numerical thresholds
-12255- type_latticepoint_update: Could not generate lattice points
-12254- xtb_calculator_singlepoint: Electronic structure method terminated
-12253- scf: Setup of Coulomb evaluator failed
-12252- type_coulomb_setupBoundaryConditions: Could not setup numerical thresholds
-12251- type_latticepoint_update: Could not generate lattice points
-12250- xtb_calculator_singlepoint: Electronic structure method terminated
-12249- scf: Setup of Coulomb evaluator failed
-12248- type_coulomb_setupBoundaryConditions: Could not setup numerical thresholds
-12247- type_latticepoint_update: Could not generate lattice points
-12246- xtb_calculator_singlepoint: Electronic structure method terminated
-12245- scf: Setup of Coulomb evaluator failed
-12244- type_coulomb_setupBoundaryConditions: Could not setup numerical thresholds
-12243- type_latticepoint_update: Could not generate lattice points
-12242- xtb_calculator_singlepoint: Electronic structure method terminated
-12241- scf: Setup of Coulomb evaluator failed
-12240- type_coulomb_setupBoundaryConditions: Could not setup numerical thresholds
-12239- type_latticepoint_update: Could not generate lattice points
-12238- xtb_calculator_singlepoint: Electronic structure method terminated
-12237- scf: Setup of Coulomb evaluator failed
-12236- type_coulomb_setupBoundaryConditions: Could not setup numerical thresholds
-12235- type_latticepoint_update: Could not generate lattice points
-12234- xtb_calculator_singlepoint: Electronic structure method terminated
-12233- scf: Setup of Coulomb evaluator failed
-12232- type_coulomb_setupBoundaryConditions: Could not setup numerical thresholds
-12231- type_latticepoint_update: Could not generate lattice points
-12230- xtb_calculator_singlepoint: Electronic structure method terminated
-12229- scf: Setup of Coulomb evaluator failed
-12228- type_coulomb_setupBoundaryConditions: Could not setup numerical thresholds
-12227- type_latticepoint_update: Could not generate lattice points
-12226- xtb_calculator_singlepoint: Electronic structure method terminated
-12225- scf: Setup of Coulomb evaluator failed
-12224- type_coulomb_setupBoundaryConditions: Could not setup numerical thresholds
-12223- type_latticepoint_update: Could not generate lattice points
-12222- xtb_calculator_singlepoint: Electronic structure method terminated
-12221- scf: Setup of Coulomb evaluator failed
-12220- type_coulomb_setupBoundaryConditions: Could not setup numerical thresholds
-12219- type_latticepoint_update: Could not generate lattice points
-12218- xtb_calculator_singlepoint: Electronic structure method terminated
-12217- scf: Setup of Coulomb evaluator failed
-12216- type_coulomb_setupBoundaryConditions: Could not setup numerical thresholds
-12215- type_latticepoint_update: Could not generate lattice points
-12214- xtb_calculator_singlepoint: Electronic structure method terminated
-12213- scf: Setup of Coulomb evaluator failed
-12212- type_coulomb_setupBoundaryConditions: Could not setup numerical thresholds
-12211- type_latticepoint_update: Could not generate lattice points
-12210- xtb_calculator_singlepoint: Electronic structure method terminated
-12209- scf: Setup of Coulomb evaluator failed
-12208- type_coulomb_setupBoundaryConditions: Could not setup numerical thresholds
-12207- type_latticepoint_update: Could not generate lattice points
-12206- xtb_calculator_singlepoint: Electronic structure method terminated
-12205- scf: Setup of Coulomb evaluator failed
-12204- type_coulomb_setupBoundaryConditions: Could not setup numerical thresholds
-12203- type_latticepoint_update: Could not generate lattice points
-12202- xtb_calculator_singlepoint: Electronic structure method terminated
-12201- scf: Setup of Coulomb evaluator failed
-12200- type_coulomb_setupBoundaryConditions: Could not setup numerical thresholds
-12199- type_latticepoint_update: Could not generate lattice points
-12198- xtb_calculator_singlepoint: Electronic structure method terminated
-12197- scf: Setup of Coulomb evaluator failed
-12196- type_coulomb_setupBoundaryConditions: Could not setup numerical thresholds
-12195- type_latticepoint_update: Could not generate lattice points
-12194- xtb_calculator_singlepoint: Electronic structure method terminated
-12193- scf: Setup of Coulomb evaluator failed
-12192- type_coulomb_setupBoundaryConditions: Could not setup numerical thresholds
-12191- type_latticepoint_update: Could not generate lattice points
-12190- xtb_calculator_singlepoint: Electronic structure method terminated
-12189- scf: Setup of Coulomb evaluator failed
-12188- type_coulomb_setupBoundaryConditions: Could not setup numerical thresholds
-12187- type_latticepoint_update: Could not generate lattice points
-12186- xtb_calculator_singlepoint: Electronic structure method terminated
-12185- scf: Setup of Coulomb evaluator failed
-12184- type_coulomb_setupBoundaryConditions: Could not setup numerical thresholds
-12183- type_latticepoint_update: Could not generate lattice points
-12182- xtb_calculator_singlepoint: Electronic structure method terminated
-12181- scf: Setup of Coulomb evaluator failed
-12180- type_coulomb_setupBoundaryConditions: Could not setup numerical thresholds
-12179- type_latticepoint_update: Could not generate lattice points
-12178- xtb_calculator_singlepoint: Electronic structure method terminated
-12177- scf: Setup of Coulomb evaluator failed
-12176- type_coulomb_setupBoundaryConditions: Could not setup numerical thresholds
-12175- type_latticepoint_update: Could not generate lattice points
-12174- xtb_calculator_singlepoint: Electronic structure method terminated
-12173- scf: Setup of Coulomb evaluator failed
-12172- type_coulomb_setupBoundaryConditions: Could not setup numerical thresholds
-12171- type_latticepoint_update: Could not generate lattice points
-12170- xtb_calculator_singlepoint: Electronic structure method terminated
-12169- scf: Setup of Coulomb evaluator failed
-12168- type_coulomb_setupBoundaryConditions: Could not setup numerical thresholds
-12167- type_latticepoint_update: Could not generate lattice points
-12166- xtb_calculator_singlepoint: Electronic structure method terminated
-12165- scf: Setup of Coulomb evaluator failed
-12164- type_coulomb_setupBoundaryConditions: Could not setup numerical thresholds
-12163- type_latticepoint_update: Could not generate lattice points
-12162- xtb_calculator_singlepoint: Electronic structure method terminated
-12161- scf: Setup of Coulomb evaluator failed
-12160- type_coulomb_setupBoundaryConditions: Could not setup numerical thresholds
-12159- type_latticepoint_update: Could not generate lattice points
-12158- xtb_calculator_singlepoint: Electronic structure method terminated
-12157- scf: Setup of Coulomb evaluator failed
-12156- type_coulomb_setupBoundaryConditions: Could not setup numerical thresholds
-12155- type_latticepoint_update: Could not generate lattice points
-12154- xtb_calculator_singlepoint: Electronic structure method terminated
-12153- scf: Setup of Coulomb evaluator failed
-12152- type_coulomb_setupBoundaryConditions: Could not setup numerical thresholds
-12151- type_latticepoint_update: Could not generate lattice points
-12150- xtb_calculator_singlepoint: Electronic structure method terminated
-12149- scf: Setup of Coulomb evaluator failed
-12148- type_coulomb_setupBoundaryConditions: Could not setup numerical thresholds
-12147- type_latticepoint_update: Could not generate lattice points
-12146- xtb_calculator_singlepoint: Electronic structure method terminated
-12145- scf: Setup of Coulomb evaluator failed
-12144- type_coulomb_setupBoundaryConditions: Could not setup numerical thresholds
-12143- type_latticepoint_update: Could not generate lattice points
-12142- xtb_calculator_singlepoint: Electronic structure method terminated
-12141- scf: Setup of Coulomb evaluator failed
-12140- type_coulomb_setupBoundaryConditions: Could not setup numerical thresholds
-12139- type_latticepoint_update: Could not generate lattice points
-12138- xtb_calculator_singlepoint: Electronic structure method terminated
-12137- scf: Setup of Coulomb evaluator failed
-12136- type_coulomb_setupBoundaryConditions: Could not setup numerical thresholds
-12135- type_latticepoint_update: Could not generate lattice points
-12134- xtb_calculator_singlepoint: Electronic structure method terminated
-12133- scf: Setup of Coulomb evaluator failed
-12132- type_coulomb_setupBoundaryConditions: Could not setup numerical thresholds
-12131- type_latticepoint_update: Could not generate lattice points
-12130- xtb_calculator_singlepoint: Electronic structure method terminated
-12129- scf: Setup of Coulomb evaluator failed
-12128- type_coulomb_setupBoundaryConditions: Could not setup numerical thresholds
-12127- type_latticepoint_update: Could not generate lattice points
-12126- xtb_calculator_singlepoint: Electronic structure method terminated
-12125- scf: Setup of Coulomb evaluator failed
-12124- type_coulomb_setupBoundaryConditions: Could not setup numerical thresholds
-12123- type_latticepoint_update: Could not generate lattice points
-12122- xtb_calculator_singlepoint: Electronic structure method terminated
-12121- scf: Setup of Coulomb evaluator failed
-12120- type_coulomb_setupBoundaryConditions: Could not setup numerical thresholds
-12119- type_latticepoint_update: Could not generate lattice points
-12118- xtb_calculator_singlepoint: Electronic structure method terminated
-12117- scf: Setup of Coulomb evaluator failed
-12116- type_coulomb_setupBoundaryConditions: Could not setup numerical thresholds
-12115- type_latticepoint_update: Could not generate lattice points
-12114- xtb_calculator_singlepoint: Electronic structure method terminated
-12113- scf: Setup of Coulomb evaluator failed
-12112- type_coulomb_setupBoundaryConditions: Could not setup numerical thresholds
-12111- type_latticepoint_update: Could not generate lattice points
-12110- xtb_calculator_singlepoint: Electronic structure method terminated
-12109- scf: Setup of Coulomb evaluator failed
-12108- type_coulomb_setupBoundaryConditions: Could not setup numerical thresholds
-12107- type_latticepoint_update: Could not generate lattice points
-12106- xtb_calculator_singlepoint: Electronic structure method terminated
-12105- scf: Setup of Coulomb evaluator failed
-12104- type_coulomb_setupBoundaryConditions: Could not setup numerical thresholds
-12103- type_latticepoint_update: Could not generate lattice points
-12102- xtb_calculator_singlepoint: Electronic structure method terminated
-12101- scf: Setup of Coulomb evaluator failed
-12100- type_coulomb_setupBoundaryConditions: Could not setup numerical thresholds
-12099- type_latticepoint_update: Could not generate lattice points
-12098- xtb_calculator_singlepoint: Electronic structure method terminated
-12097- scf: Setup of Coulomb evaluator failed
-12096- type_coulomb_setupBoundaryConditions: Could not setup numerical thresholds
-12095- type_latticepoint_update: Could not generate lattice points
-12094- xtb_calculator_singlepoint: Electronic structure method terminated
-12093- scf: Setup of Coulomb evaluator failed
-12092- type_coulomb_setupBoundaryConditions: Could not setup numerical thresholds
-12091- type_latticepoint_update: Could not generate lattice points
-12090- xtb_calculator_singlepoint: Electronic structure method terminated
-12089- scf: Setup of Coulomb evaluator failed
-12088- type_coulomb_setupBoundaryConditions: Could not setup numerical thresholds
-12087- type_latticepoint_update: Could not generate lattice points
-12086- xtb_calculator_singlepoint: Electronic structure method terminated
-12085- scf: Setup of Coulomb evaluator failed
-12084- type_coulomb_setupBoundaryConditions: Could not setup numerical thresholds
-12083- type_latticepoint_update: Could not generate lattice points
-12082- xtb_calculator_singlepoint: Electronic structure method terminated
-12081- scf: Setup of Coulomb evaluator failed
-12080- type_coulomb_setupBoundaryConditions: Could not setup numerical thresholds
-12079- type_latticepoint_update: Could not generate lattice points
-12078- xtb_calculator_singlepoint: Electronic structure method terminated
-12077- scf: Setup of Coulomb evaluator failed
-12076- type_coulomb_setupBoundaryConditions: Could not setup numerical thresholds
-12075- type_latticepoint_update: Could not generate lattice points
-12074- xtb_calculator_singlepoint: Electronic structure method terminated
-12073- scf: Setup of Coulomb evaluator failed
-12072- type_coulomb_setupBoundaryConditions: Could not setup numerical thresholds
-12071- type_latticepoint_update: Could not generate lattice points
-12070- xtb_calculator_singlepoint: Electronic structure method terminated
-12069- scf: Setup of Coulomb evaluator failed
-12068- type_coulomb_setupBoundaryConditions: Could not setup numerical thresholds
-12067- type_latticepoint_update: Could not generate lattice points
-12066- xtb_calculator_singlepoint: Electronic structure method terminated
-12065- scf: Setup of Coulomb evaluator failed
-12064- type_coulomb_setupBoundaryConditions: Could not setup numerical thresholds
-12063- type_latticepoint_update: Could not generate lattice points
-12062- xtb_calculator_singlepoint: Electronic structure method terminated
-12061- scf: Setup of Coulomb evaluator failed
-12060- type_coulomb_setupBoundaryConditions: Could not setup numerical thresholds
-12059- type_latticepoint_update: Could not generate lattice points
-12058- xtb_calculator_singlepoint: Electronic structure method terminated
-12057- scf: Setup of Coulomb evaluator failed
-12056- type_coulomb_setupBoundaryConditions: Could not setup numerical thresholds
-12055- type_latticepoint_update: Could not generate lattice points
-12054- xtb_calculator_singlepoint: Electronic structure method terminated
-12053- scf: Setup of Coulomb evaluator failed
-12052- type_coulomb_setupBoundaryConditions: Could not setup numerical thresholds
-12051- type_latticepoint_update: Could not generate lattice points
-12050- xtb_calculator_singlepoint: Electronic structure method terminated
-12049- scf: Setup of Coulomb evaluator failed
-12048- type_coulomb_setupBoundaryConditions: Could not setup numerical thresholds
-12047- type_latticepoint_update: Could not generate lattice points
-12046- xtb_calculator_singlepoint: Electronic structure method terminated
-12045- scf: Setup of Coulomb evaluator failed
-12044- type_coulomb_setupBoundaryConditions: Could not setup numerical thresholds
-12043- type_latticepoint_update: Could not generate lattice points
-12042- xtb_calculator_singlepoint: Electronic structure method terminated
-12041- scf: Setup of Coulomb evaluator failed
-12040- type_coulomb_setupBoundaryConditions: Could not setup numerical thresholds
-12039- type_latticepoint_update: Could not generate lattice points
-12038- xtb_calculator_singlepoint: Electronic structure method terminated
-12037- scf: Setup of Coulomb evaluator failed
-12036- type_coulomb_setupBoundaryConditions: Could not setup numerical thresholds
-12035- type_latticepoint_update: Could not generate lattice points
-12034- xtb_calculator_singlepoint: Electronic structure method terminated
-12033- scf: Setup of Coulomb evaluator failed
-12032- type_coulomb_setupBoundaryConditions: Could not setup numerical thresholds
-12031- type_latticepoint_update: Could not generate lattice points
-12030- xtb_calculator_singlepoint: Electronic structure method terminated
-12029- scf: Setup of Coulomb evaluator failed
-12028- type_coulomb_setupBoundaryConditions: Could not setup numerical thresholds
-12027- type_latticepoint_update: Could not generate lattice points
-12026- xtb_calculator_singlepoint: Electronic structure method terminated
-12025- scf: Setup of Coulomb evaluator failed
-12024- type_coulomb_setupBoundaryConditions: Could not setup numerical thresholds
-12023- type_latticepoint_update: Could not generate lattice points
-12022- xtb_calculator_singlepoint: Electronic structure method terminated
-12021- scf: Setup of Coulomb evaluator failed
-12020- type_coulomb_setupBoundaryConditions: Could not setup numerical thresholds
-12019- type_latticepoint_update: Could not generate lattice points
-12018- xtb_calculator_singlepoint: Electronic structure method terminated
-12017- scf: Setup of Coulomb evaluator failed
-12016- type_coulomb_setupBoundaryConditions: Could not setup numerical thresholds
-12015- type_latticepoint_update: Could not generate lattice points
-12014- xtb_calculator_singlepoint: Electronic structure method terminated
-12013- scf: Setup of Coulomb evaluator failed
-12012- type_coulomb_setupBoundaryConditions: Could not setup numerical thresholds
-12011- type_latticepoint_update: Could not generate lattice points
-12010- xtb_calculator_singlepoint: Electronic structure method terminated
-12009- scf: Setup of Coulomb evaluator failed
-12008- type_coulomb_setupBoundaryConditions: Could not setup numerical thresholds
-12007- type_latticepoint_update: Could not generate lattice points
-12006- xtb_calculator_singlepoint: Electronic structure method terminated
-12005- scf: Setup of Coulomb evaluator failed
-12004- type_coulomb_setupBoundaryConditions: Could not setup numerical thresholds
-12003- type_latticepoint_update: Could not generate lattice points
-12002- xtb_calculator_singlepoint: Electronic structure method terminated
-12001- scf: Setup of Coulomb evaluator failed
-12000- type_coulomb_setupBoundaryConditions: Could not setup numerical thresholds
-11999- type_latticepoint_update: Could not generate lattice points
-11998- xtb_calculator_singlepoint: Electronic structure method terminated
-11997- scf: Setup of Coulomb evaluator failed
-11996- type_coulomb_setupBoundaryConditions: Could not setup numerical thresholds
-11995- type_latticepoint_update: Could not generate lattice points
-11994- xtb_calculator_singlepoint: Electronic structure method terminated
-11993- scf: Setup of Coulomb evaluator failed
-11992- type_coulomb_setupBoundaryConditions: Could not setup numerical thresholds
-11991- type_latticepoint_update: Could not generate lattice points
-11990- xtb_calculator_singlepoint: Electronic structure method terminated
-11989- scf: Setup of Coulomb evaluator failed
-11988- type_coulomb_setupBoundaryConditions: Could not setup numerical thresholds
-11987- type_latticepoint_update: Could not generate lattice points
-11986- xtb_calculator_singlepoint: Electronic structure method terminated
-11985- scf: Setup of Coulomb evaluator failed
-11984- type_coulomb_setupBoundaryConditions: Could not setup numerical thresholds
-11983- type_latticepoint_update: Could not generate lattice points
-11982- xtb_calculator_singlepoint: Electronic structure method terminated
-11981- scf: Setup of Coulomb evaluator failed
-11980- type_coulomb_setupBoundaryConditions: Could not setup numerical thresholds
-11979- type_latticepoint_update: Could not generate lattice points
-11978- xtb_calculator_singlepoint: Electronic structure method terminated
-11977- scf: Setup of Coulomb evaluator failed
-11976- type_coulomb_setupBoundaryConditions: Could not setup numerical thresholds
-11975- type_latticepoint_update: Could not generate lattice points
-11974- xtb_calculator_singlepoint: Electronic structure method terminated
-11973- scf: Setup of Coulomb evaluator failed
-11972- type_coulomb_setupBoundaryConditions: Could not setup numerical thresholds
-11971- type_latticepoint_update: Could not generate lattice points
-11970- xtb_calculator_singlepoint: Electronic structure method terminated
-11969- scf: Setup of Coulomb evaluator failed
-11968- type_coulomb_setupBoundaryConditions: Could not setup numerical thresholds
-11967- type_latticepoint_update: Could not generate lattice points
-11966- xtb_calculator_singlepoint: Electronic structure method terminated
-11965- scf: Setup of Coulomb evaluator failed
-11964- type_coulomb_setupBoundaryConditions: Could not setup numerical thresholds
-11963- type_latticepoint_update: Could not generate lattice points
-11962- xtb_calculator_singlepoint: Electronic structure method terminated
-11961- scf: Setup of Coulomb evaluator failed
-11960- type_coulomb_setupBoundaryConditions: Could not setup numerical thresholds
-11959- type_latticepoint_update: Could not generate lattice points
-11958- xtb_calculator_singlepoint: Electronic structure method terminated
-11957- scf: Setup of Coulomb evaluator failed
-11956- type_coulomb_setupBoundaryConditions: Could not setup numerical thresholds
-11955- type_latticepoint_update: Could not generate lattice points
-11954- xtb_calculator_singlepoint: Electronic structure method terminated
-11953- scf: Setup of Coulomb evaluator failed
-11952- type_coulomb_setupBoundaryConditions: Could not setup numerical thresholds
-11951- type_latticepoint_update: Could not generate lattice points
-11950- xtb_calculator_singlepoint: Electronic structure method terminated
-11949- scf: Setup of Coulomb evaluator failed
-11948- type_coulomb_setupBoundaryConditions: Could not setup numerical thresholds
-11947- type_latticepoint_update: Could not generate lattice points
-11946- xtb_calculator_singlepoint: Electronic structure method terminated
-11945- scf: Setup of Coulomb evaluator failed
-11944- type_coulomb_setupBoundaryConditions: Could not setup numerical thresholds
-11943- type_latticepoint_update: Could not generate lattice points
-11942- xtb_calculator_singlepoint: Electronic structure method terminated
-11941- scf: Setup of Coulomb evaluator failed
-11940- type_coulomb_setupBoundaryConditions: Could not setup numerical thresholds
-11939- type_latticepoint_update: Could not generate lattice points
-11938- xtb_calculator_singlepoint: Electronic structure method terminated
-11937- scf: Setup of Coulomb evaluator failed
-11936- type_coulomb_setupBoundaryConditions: Could not setup numerical thresholds
-11935- type_latticepoint_update: Could not generate lattice points
-11934- xtb_calculator_singlepoint: Electronic structure method terminated
-11933- scf: Setup of Coulomb evaluator failed
-11932- type_coulomb_setupBoundaryConditions: Could not setup numerical thresholds
-11931- type_latticepoint_update: Could not generate lattice points
-11930- xtb_calculator_singlepoint: Electronic structure method terminated
-11929- scf: Setup of Coulomb evaluator failed
-11928- type_coulomb_setupBoundaryConditions: Could not setup numerical thresholds
-11927- type_latticepoint_update: Could not generate lattice points
-11926- xtb_calculator_singlepoint: Electronic structure method terminated
-11925- scf: Setup of Coulomb evaluator failed
-11924- type_coulomb_setupBoundaryConditions: Could not setup numerical thresholds
-11923- type_latticepoint_update: Could not generate lattice points
-11922- xtb_calculator_singlepoint: Electronic structure method terminated
-11921- scf: Setup of Coulomb evaluator failed
-11920- type_coulomb_setupBoundaryConditions: Could not setup numerical thresholds
-11919- type_latticepoint_update: Could not generate lattice points
-11918- xtb_calculator_singlepoint: Electronic structure method terminated
-11917- scf: Setup of Coulomb evaluator failed
-11916- type_coulomb_setupBoundaryConditions: Could not setup numerical thresholds
-11915- type_latticepoint_update: Could not generate lattice points
-11914- xtb_calculator_singlepoint: Electronic structure method terminated
-11913- scf: Setup of Coulomb evaluator failed
-11912- type_coulomb_setupBoundaryConditions: Could not setup numerical thresholds
-11911- type_latticepoint_update: Could not generate lattice points
-11910- xtb_calculator_singlepoint: Electronic structure method terminated
-11909- scf: Setup of Coulomb evaluator failed
-11908- type_coulomb_setupBoundaryConditions: Could not setup numerical thresholds
-11907- type_latticepoint_update: Could not generate lattice points
-11906- xtb_calculator_singlepoint: Electronic structure method terminated
-11905- scf: Setup of Coulomb evaluator failed
-11904- type_coulomb_setupBoundaryConditions: Could not setup numerical thresholds
-11903- type_latticepoint_update: Could not generate lattice points
-11902- xtb_calculator_singlepoint: Electronic structure method terminated
-11901- scf: Setup of Coulomb evaluator failed
-11900- type_coulomb_setupBoundaryConditions: Could not setup numerical thresholds
-11899- type_latticepoint_update: Could not generate lattice points
-11898- xtb_calculator_singlepoint: Electronic structure method terminated
-11897- scf: Setup of Coulomb evaluator failed
-11896- type_coulomb_setupBoundaryConditions: Could not setup numerical thresholds
-11895- type_latticepoint_update: Could not generate lattice points
-11894- xtb_calculator_singlepoint: Electronic structure method terminated
-11893- scf: Setup of Coulomb evaluator failed
-11892- type_coulomb_setupBoundaryConditions: Could not setup numerical thresholds
-11891- type_latticepoint_update: Could not generate lattice points
-11890- xtb_calculator_singlepoint: Electronic structure method terminated
-11889- scf: Setup of Coulomb evaluator failed
-11888- type_coulomb_setupBoundaryConditions: Could not setup numerical thresholds
-11887- type_latticepoint_update: Could not generate lattice points
-11886- xtb_calculator_singlepoint: Electronic structure method terminated
-11885- scf: Setup of Coulomb evaluator failed
-11884- type_coulomb_setupBoundaryConditions: Could not setup numerical thresholds
-11883- type_latticepoint_update: Could not generate lattice points
-11882- xtb_calculator_singlepoint: Electronic structure method terminated
-11881- scf: Setup of Coulomb evaluator failed
-11880- type_coulomb_setupBoundaryConditions: Could not setup numerical thresholds
-11879- type_latticepoint_update: Could not generate lattice points
-11878- xtb_calculator_singlepoint: Electronic structure method terminated
-11877- scf: Setup of Coulomb evaluator failed
-11876- type_coulomb_setupBoundaryConditions: Could not setup numerical thresholds
-11875- type_latticepoint_update: Could not generate lattice points
-11874- xtb_calculator_singlepoint: Electronic structure method terminated
-11873- scf: Setup of Coulomb evaluator failed
-11872- type_coulomb_setupBoundaryConditions: Could not setup numerical thresholds
-11871- type_latticepoint_update: Could not generate lattice points
-11870- xtb_calculator_singlepoint: Electronic structure method terminated
-11869- scf: Setup of Coulomb evaluator failed
-11868- type_coulomb_setupBoundaryConditions: Could not setup numerical thresholds
-11867- type_latticepoint_update: Could not generate lattice points
-11866- xtb_calculator_singlepoint: Electronic structure method terminated
-11865- scf: Setup of Coulomb evaluator failed
-11864- type_coulomb_setupBoundaryConditions: Could not setup numerical thresholds
-11863- type_latticepoint_update: Could not generate lattice points
-11862- xtb_calculator_singlepoint: Electronic structure method terminated
-11861- scf: Setup of Coulomb evaluator failed
-11860- type_coulomb_setupBoundaryConditions: Could not setup numerical thresholds
-11859- type_latticepoint_update: Could not generate lattice points
-11858- xtb_calculator_singlepoint: Electronic structure method terminated
-11857- scf: Setup of Coulomb evaluator failed
-11856- type_coulomb_setupBoundaryConditions: Could not setup numerical thresholds
-11855- type_latticepoint_update: Could not generate lattice points
-11854- xtb_calculator_singlepoint: Electronic structure method terminated
-11853- scf: Setup of Coulomb evaluator failed
-11852- type_coulomb_setupBoundaryConditions: Could not setup numerical thresholds
-11851- type_latticepoint_update: Could not generate lattice points
-11850- xtb_calculator_singlepoint: Electronic structure method terminated
-11849- scf: Setup of Coulomb evaluator failed
-11848- type_coulomb_setupBoundaryConditions: Could not setup numerical thresholds
-11847- type_latticepoint_update: Could not generate lattice points
-11846- xtb_calculator_singlepoint: Electronic structure method terminated
-11845- scf: Setup of Coulomb evaluator failed
-11844- type_coulomb_setupBoundaryConditions: Could not setup numerical thresholds
-11843- type_latticepoint_update: Could not generate lattice points
-11842- xtb_calculator_singlepoint: Electronic structure method terminated
-11841- scf: Setup of Coulomb evaluator failed
-11840- type_coulomb_setupBoundaryConditions: Could not setup numerical thresholds
-11839- type_latticepoint_update: Could not generate lattice points
-11838- xtb_calculator_singlepoint: Electronic structure method terminated
-11837- scf: Setup of Coulomb evaluator failed
-11836- type_coulomb_setupBoundaryConditions: Could not setup numerical thresholds
-11835- type_latticepoint_update: Could not generate lattice points
-11834- xtb_calculator_singlepoint: Electronic structure method terminated
-11833- scf: Setup of Coulomb evaluator failed
-11832- type_coulomb_setupBoundaryConditions: Could not setup numerical thresholds
-11831- type_latticepoint_update: Could not generate lattice points
-11830- xtb_calculator_singlepoint: Electronic structure method terminated
-11829- scf: Setup of Coulomb evaluator failed
-11828- type_coulomb_setupBoundaryConditions: Could not setup numerical thresholds
-11827- type_latticepoint_update: Could not generate lattice points
-11826- xtb_calculator_singlepoint: Electronic structure method terminated
-11825- scf: Setup of Coulomb evaluator failed
-11824- type_coulomb_setupBoundaryConditions: Could not setup numerical thresholds
-11823- type_latticepoint_update: Could not generate lattice points
-11822- xtb_calculator_singlepoint: Electronic structure method terminated
-11821- scf: Setup of Coulomb evaluator failed
-11820- type_coulomb_setupBoundaryConditions: Could not setup numerical thresholds
-11819- type_latticepoint_update: Could not generate lattice points
-11818- xtb_calculator_singlepoint: Electronic structure method terminated
-11817- scf: Setup of Coulomb evaluator failed
-11816- type_coulomb_setupBoundaryConditions: Could not setup numerical thresholds
-11815- type_latticepoint_update: Could not generate lattice points
-11814- xtb_calculator_singlepoint: Electronic structure method terminated
-11813- scf: Setup of Coulomb evaluator failed
-11812- type_coulomb_setupBoundaryConditions: Could not setup numerical thresholds
-11811- type_latticepoint_update: Could not generate lattice points
-11810- xtb_calculator_singlepoint: Electronic structure method terminated
-11809- scf: Setup of Coulomb evaluator failed
-11808- type_coulomb_setupBoundaryConditions: Could not setup numerical thresholds
-11807- type_latticepoint_update: Could not generate lattice points
-11806- xtb_calculator_singlepoint: Electronic structure method terminated
-11805- scf: Setup of Coulomb evaluator failed
-11804- type_coulomb_setupBoundaryConditions: Could not setup numerical thresholds
-11803- type_latticepoint_update: Could not generate lattice points
-11802- xtb_calculator_singlepoint: Electronic structure method terminated
-11801- scf: Setup of Coulomb evaluator failed
-11800- type_coulomb_setupBoundaryConditions: Could not setup numerical thresholds
-11799- type_latticepoint_update: Could not generate lattice points
-11798- xtb_calculator_singlepoint: Electronic structure method terminated
-11797- scf: Setup of Coulomb evaluator failed
-11796- type_coulomb_setupBoundaryConditions: Could not setup numerical thresholds
-11795- type_latticepoint_update: Could not generate lattice points
-11794- xtb_calculator_singlepoint: Electronic structure method terminated
-11793- scf: Setup of Coulomb evaluator failed
-11792- type_coulomb_setupBoundaryConditions: Could not setup numerical thresholds
-11791- type_latticepoint_update: Could not generate lattice points
-11790- xtb_calculator_singlepoint: Electronic structure method terminated
-11789- scf: Setup of Coulomb evaluator failed
-11788- type_coulomb_setupBoundaryConditions: Could not setup numerical thresholds
-11787- type_latticepoint_update: Could not generate lattice points
-11786- xtb_calculator_singlepoint: Electronic structure method terminated
-11785- scf: Setup of Coulomb evaluator failed
-11784- type_coulomb_setupBoundaryConditions: Could not setup numerical thresholds
-11783- type_latticepoint_update: Could not generate lattice points
-11782- xtb_calculator_singlepoint: Electronic structure method terminated
-11781- scf: Setup of Coulomb evaluator failed
-11780- type_coulomb_setupBoundaryConditions: Could not setup numerical thresholds
-11779- type_latticepoint_update: Could not generate lattice points
-11778- xtb_calculator_singlepoint: Electronic structure method terminated
-11777- scf: Setup of Coulomb evaluator failed
-11776- type_coulomb_setupBoundaryConditions: Could not setup numerical thresholds
-11775- type_latticepoint_update: Could not generate lattice points
-11774- xtb_calculator_singlepoint: Electronic structure method terminated
-11773- scf: Setup of Coulomb evaluator failed
-11772- type_coulomb_setupBoundaryConditions: Could not setup numerical thresholds
-11771- type_latticepoint_update: Could not generate lattice points
-11770- xtb_calculator_singlepoint: Electronic structure method terminated
-11769- scf: Setup of Coulomb evaluator failed
-11768- type_coulomb_setupBoundaryConditions: Could not setup numerical thresholds
-11767- type_latticepoint_update: Could not generate lattice points
-11766- xtb_calculator_singlepoint: Electronic structure method terminated
-11765- scf: Setup of Coulomb evaluator failed
-11764- type_coulomb_setupBoundaryConditions: Could not setup numerical thresholds
-11763- type_latticepoint_update: Could not generate lattice points
-11762- xtb_calculator_singlepoint: Electronic structure method terminated
-11761- scf: Setup of Coulomb evaluator failed
-11760- type_coulomb_setupBoundaryConditions: Could not setup numerical thresholds
-11759- type_latticepoint_update: Could not generate lattice points
-11758- xtb_calculator_singlepoint: Electronic structure method terminated
-11757- scf: Setup of Coulomb evaluator failed
-11756- type_coulomb_setupBoundaryConditions: Could not setup numerical thresholds
-11755- type_latticepoint_update: Could not generate lattice points
-11754- xtb_calculator_singlepoint: Electronic structure method terminated
-11753- scf: Setup of Coulomb evaluator failed
-11752- type_coulomb_setupBoundaryConditions: Could not setup numerical thresholds
-11751- type_latticepoint_update: Could not generate lattice points
-11750- xtb_calculator_singlepoint: Electronic structure method terminated
-11749- scf: Setup of Coulomb evaluator failed
-11748- type_coulomb_setupBoundaryConditions: Could not setup numerical thresholds
-11747- type_latticepoint_update: Could not generate lattice points
-11746- xtb_calculator_singlepoint: Electronic structure method terminated
-11745- scf: Setup of Coulomb evaluator failed
-11744- type_coulomb_setupBoundaryConditions: Could not setup numerical thresholds
-11743- type_latticepoint_update: Could not generate lattice points
-11742- xtb_calculator_singlepoint: Electronic structure method terminated
-11741- scf: Setup of Coulomb evaluator failed
-11740- type_coulomb_setupBoundaryConditions: Could not setup numerical thresholds
-11739- type_latticepoint_update: Could not generate lattice points
-11738- xtb_calculator_singlepoint: Electronic structure method terminated
-11737- scf: Setup of Coulomb evaluator failed
-11736- type_coulomb_setupBoundaryConditions: Could not setup numerical thresholds
-11735- type_latticepoint_update: Could not generate lattice points
-11734- xtb_calculator_singlepoint: Electronic structure method terminated
-11733- scf: Setup of Coulomb evaluator failed
-11732- type_coulomb_setupBoundaryConditions: Could not setup numerical thresholds
-11731- type_latticepoint_update: Could not generate lattice points
-11730- xtb_calculator_singlepoint: Electronic structure method terminated
-11729- scf: Setup of Coulomb evaluator failed
-11728- type_coulomb_setupBoundaryConditions: Could not setup numerical thresholds
-11727- type_latticepoint_update: Could not generate lattice points
-11726- xtb_calculator_singlepoint: Electronic structure method terminated
-11725- scf: Setup of Coulomb evaluator failed
-11724- type_coulomb_setupBoundaryConditions: Could not setup numerical thresholds
-11723- type_latticepoint_update: Could not generate lattice points
-11722- xtb_calculator_singlepoint: Electronic structure method terminated
-11721- scf: Setup of Coulomb evaluator failed
-11720- type_coulomb_setupBoundaryConditions: Could not setup numerical thresholds
-11719- type_latticepoint_update: Could not generate lattice points
-11718- xtb_calculator_singlepoint: Electronic structure method terminated
-11717- scf: Setup of Coulomb evaluator failed
-11716- type_coulomb_setupBoundaryConditions: Could not setup numerical thresholds
-11715- type_latticepoint_update: Could not generate lattice points
-11714- xtb_calculator_singlepoint: Electronic structure method terminated
-11713- scf: Setup of Coulomb evaluator failed
-11712- type_coulomb_setupBoundaryConditions: Could not setup numerical thresholds
-11711- type_latticepoint_update: Could not generate lattice points
-11710- xtb_calculator_singlepoint: Electronic structure method terminated
-11709- scf: Setup of Coulomb evaluator failed
-11708- type_coulomb_setupBoundaryConditions: Could not setup numerical thresholds
-11707- type_latticepoint_update: Could not generate lattice points
-11706- xtb_calculator_singlepoint: Electronic structure method terminated
-11705- scf: Setup of Coulomb evaluator failed
-11704- type_coulomb_setupBoundaryConditions: Could not setup numerical thresholds
-11703- type_latticepoint_update: Could not generate lattice points
-11702- xtb_calculator_singlepoint: Electronic structure method terminated
-11701- scf: Setup of Coulomb evaluator failed
-11700- type_coulomb_setupBoundaryConditions: Could not setup numerical thresholds
-11699- type_latticepoint_update: Could not generate lattice points
-11698- xtb_calculator_singlepoint: Electronic structure method terminated
-11697- scf: Setup of Coulomb evaluator failed
-11696- type_coulomb_setupBoundaryConditions: Could not setup numerical thresholds
-11695- type_latticepoint_update: Could not generate lattice points
-11694- xtb_calculator_singlepoint: Electronic structure method terminated
-11693- scf: Setup of Coulomb evaluator failed
-11692- type_coulomb_setupBoundaryConditions: Could not setup numerical thresholds
-11691- type_latticepoint_update: Could not generate lattice points
-11690- xtb_calculator_singlepoint: Electronic structure method terminated
-11689- scf: Setup of Coulomb evaluator failed
-11688- type_coulomb_setupBoundaryConditions: Could not setup numerical thresholds
-11687- type_latticepoint_update: Could not generate lattice points
-11686- xtb_calculator_singlepoint: Electronic structure method terminated
-11685- scf: Setup of Coulomb evaluator failed
-11684- type_coulomb_setupBoundaryConditions: Could not setup numerical thresholds
-11683- type_latticepoint_update: Could not generate lattice points
-11682- xtb_calculator_singlepoint: Electronic structure method terminated
-11681- scf: Setup of Coulomb evaluator failed
-11680- type_coulomb_setupBoundaryConditions: Could not setup numerical thresholds
-11679- type_latticepoint_update: Could not generate lattice points
-11678- xtb_calculator_singlepoint: Electronic structure method terminated
-11677- scf: Setup of Coulomb evaluator failed
-11676- type_coulomb_setupBoundaryConditions: Could not setup numerical thresholds
-11675- type_latticepoint_update: Could not generate lattice points
-11674- xtb_calculator_singlepoint: Electronic structure method terminated
-11673- scf: Setup of Coulomb evaluator failed
-11672- type_coulomb_setupBoundaryConditions: Could not setup numerical thresholds
-11671- type_latticepoint_update: Could not generate lattice points
-11670- xtb_calculator_singlepoint: Electronic structure method terminated
-11669- scf: Setup of Coulomb evaluator failed
-11668- type_coulomb_setupBoundaryConditions: Could not setup numerical thresholds
-11667- type_latticepoint_update: Could not generate lattice points
-11666- xtb_calculator_singlepoint: Electronic structure method terminated
-11665- scf: Setup of Coulomb evaluator failed
-11664- type_coulomb_setupBoundaryConditions: Could not setup numerical thresholds
-11663- type_latticepoint_update: Could not generate lattice points
-11662- xtb_calculator_singlepoint: Electronic structure method terminated
-11661- scf: Setup of Coulomb evaluator failed
-11660- type_coulomb_setupBoundaryConditions: Could not setup numerical thresholds
-11659- type_latticepoint_update: Could not generate lattice points
-11658- xtb_calculator_singlepoint: Electronic structure method terminated
-11657- scf: Setup of Coulomb evaluator failed
-11656- type_coulomb_setupBoundaryConditions: Could not setup numerical thresholds
-11655- type_latticepoint_update: Could not generate lattice points
-11654- xtb_calculator_singlepoint: Electronic structure method terminated
-11653- scf: Setup of Coulomb evaluator failed
-11652- type_coulomb_setupBoundaryConditions: Could not setup numerical thresholds
-11651- type_latticepoint_update: Could not generate lattice points
-11650- xtb_calculator_singlepoint: Electronic structure method terminated
-11649- scf: Setup of Coulomb evaluator failed
-11648- type_coulomb_setupBoundaryConditions: Could not setup numerical thresholds
-11647- type_latticepoint_update: Could not generate lattice points
-11646- xtb_calculator_singlepoint: Electronic structure method terminated
-11645- scf: Setup of Coulomb evaluator failed
-11644- type_coulomb_setupBoundaryConditions: Could not setup numerical thresholds
-11643- type_latticepoint_update: Could not generate lattice points
-11642- xtb_calculator_singlepoint: Electronic structure method terminated
-11641- scf: Setup of Coulomb evaluator failed
-11640- type_coulomb_setupBoundaryConditions: Could not setup numerical thresholds
-11639- type_latticepoint_update: Could not generate lattice points
-11638- xtb_calculator_singlepoint: Electronic structure method terminated
-11637- scf: Setup of Coulomb evaluator failed
-11636- type_coulomb_setupBoundaryConditions: Could not setup numerical thresholds
-11635- type_latticepoint_update: Could not generate lattice points
-11634- xtb_calculator_singlepoint: Electronic structure method terminated
-11633- scf: Setup of Coulomb evaluator failed
-11632- type_coulomb_setupBoundaryConditions: Could not setup numerical thresholds
-11631- type_latticepoint_update: Could not generate lattice points
-11630- xtb_calculator_singlepoint: Electronic structure method terminated
-11629- scf: Setup of Coulomb evaluator failed
-11628- type_coulomb_setupBoundaryConditions: Could not setup numerical thresholds
-11627- type_latticepoint_update: Could not generate lattice points
-11626- xtb_calculator_singlepoint: Electronic structure method terminated
-11625- scf: Setup of Coulomb evaluator failed
-11624- type_coulomb_setupBoundaryConditions: Could not setup numerical thresholds
-11623- type_latticepoint_update: Could not generate lattice points
-11622- xtb_calculator_singlepoint: Electronic structure method terminated
-11621- scf: Setup of Coulomb evaluator failed
-11620- type_coulomb_setupBoundaryConditions: Could not setup numerical thresholds
-11619- type_latticepoint_update: Could not generate lattice points
-11618- xtb_calculator_singlepoint: Electronic structure method terminated
-11617- scf: Setup of Coulomb evaluator failed
-11616- type_coulomb_setupBoundaryConditions: Could not setup numerical thresholds
-11615- type_latticepoint_update: Could not generate lattice points
-11614- xtb_calculator_singlepoint: Electronic structure method terminated
-11613- scf: Setup of Coulomb evaluator failed
-11612- type_coulomb_setupBoundaryConditions: Could not setup numerical thresholds
-11611- type_latticepoint_update: Could not generate lattice points
-11610- xtb_calculator_singlepoint: Electronic structure method terminated
-11609- scf: Setup of Coulomb evaluator failed
-11608- type_coulomb_setupBoundaryConditions: Could not setup numerical thresholds
-11607- type_latticepoint_update: Could not generate lattice points
-11606- xtb_calculator_singlepoint: Electronic structure method terminated
-11605- scf: Setup of Coulomb evaluator failed
-11604- type_coulomb_setupBoundaryConditions: Could not setup numerical thresholds
-11603- type_latticepoint_update: Could not generate lattice points
-11602- xtb_calculator_singlepoint: Electronic structure method terminated
-11601- scf: Setup of Coulomb evaluator failed
-11600- type_coulomb_setupBoundaryConditions: Could not setup numerical thresholds
-11599- type_latticepoint_update: Could not generate lattice points
-11598- xtb_calculator_singlepoint: Electronic structure method terminated
-11597- scf: Setup of Coulomb evaluator failed
-11596- type_coulomb_setupBoundaryConditions: Could not setup numerical thresholds
-11595- type_latticepoint_update: Could not generate lattice points
-11594- xtb_calculator_singlepoint: Electronic structure method terminated
-11593- scf: Setup of Coulomb evaluator failed
-11592- type_coulomb_setupBoundaryConditions: Could not setup numerical thresholds
-11591- type_latticepoint_update: Could not generate lattice points
-11590- xtb_calculator_singlepoint: Electronic structure method terminated
-11589- scf: Setup of Coulomb evaluator failed
-11588- type_coulomb_setupBoundaryConditions: Could not setup numerical thresholds
-11587- type_latticepoint_update: Could not generate lattice points
-11586- xtb_calculator_singlepoint: Electronic structure method terminated
-11585- scf: Setup of Coulomb evaluator failed
-11584- type_coulomb_setupBoundaryConditions: Could not setup numerical thresholds
-11583- type_latticepoint_update: Could not generate lattice points
-11582- xtb_calculator_singlepoint: Electronic structure method terminated
-11581- scf: Setup of Coulomb evaluator failed
-11580- type_coulomb_setupBoundaryConditions: Could not setup numerical thresholds
-11579- type_latticepoint_update: Could not generate lattice points
-11578- xtb_calculator_singlepoint: Electronic structure method terminated
-11577- scf: Setup of Coulomb evaluator failed
-11576- type_coulomb_setupBoundaryConditions: Could not setup numerical thresholds
-11575- type_latticepoint_update: Could not generate lattice points
-11574- xtb_calculator_singlepoint: Electronic structure method terminated
-11573- scf: Setup of Coulomb evaluator failed
-11572- type_coulomb_setupBoundaryConditions: Could not setup numerical thresholds
-11571- type_latticepoint_update: Could not generate lattice points
-11570- xtb_calculator_singlepoint: Electronic structure method terminated
-11569- scf: Setup of Coulomb evaluator failed
-11568- type_coulomb_setupBoundaryConditions: Could not setup numerical thresholds
-11567- type_latticepoint_update: Could not generate lattice points
-11566- xtb_calculator_singlepoint: Electronic structure method terminated
-11565- scf: Setup of Coulomb evaluator failed
-11564- type_coulomb_setupBoundaryConditions: Could not setup numerical thresholds
-11563- type_latticepoint_update: Could not generate lattice points
-11562- xtb_calculator_singlepoint: Electronic structure method terminated
-11561- scf: Setup of Coulomb evaluator failed
-11560- type_coulomb_setupBoundaryConditions: Could not setup numerical thresholds
-11559- type_latticepoint_update: Could not generate lattice points
-11558- xtb_calculator_singlepoint: Electronic structure method terminated
-11557- scf: Setup of Coulomb evaluator failed
-11556- type_coulomb_setupBoundaryConditions: Could not setup numerical thresholds
-11555- type_latticepoint_update: Could not generate lattice points
-11554- xtb_calculator_singlepoint: Electronic structure method terminated
-11553- scf: Setup of Coulomb evaluator failed
-11552- type_coulomb_setupBoundaryConditions: Could not setup numerical thresholds
-11551- type_latticepoint_update: Could not generate lattice points
-11550- xtb_calculator_singlepoint: Electronic structure method terminated
-11549- scf: Setup of Coulomb evaluator failed
-11548- type_coulomb_setupBoundaryConditions: Could not setup numerical thresholds
-11547- type_latticepoint_update: Could not generate lattice points
-11546- xtb_calculator_singlepoint: Electronic structure method terminated
-11545- scf: Setup of Coulomb evaluator failed
-11544- type_coulomb_setupBoundaryConditions: Could not setup numerical thresholds
-11543- type_latticepoint_update: Could not generate lattice points
-11542- xtb_calculator_singlepoint: Electronic structure method terminated
-11541- scf: Setup of Coulomb evaluator failed
-11540- type_coulomb_setupBoundaryConditions: Could not setup numerical thresholds
-11539- type_latticepoint_update: Could not generate lattice points
-11538- xtb_calculator_singlepoint: Electronic structure method terminated
-11537- scf: Setup of Coulomb evaluator failed
-11536- type_coulomb_setupBoundaryConditions: Could not setup numerical thresholds
-11535- type_latticepoint_update: Could not generate lattice points
-11534- xtb_calculator_singlepoint: Electronic structure method terminated
-11533- scf: Setup of Coulomb evaluator failed
-11532- type_coulomb_setupBoundaryConditions: Could not setup numerical thresholds
-11531- type_latticepoint_update: Could not generate lattice points
-11530- xtb_calculator_singlepoint: Electronic structure method terminated
-11529- scf: Setup of Coulomb evaluator failed
-11528- type_coulomb_setupBoundaryConditions: Could not setup numerical thresholds
-11527- type_latticepoint_update: Could not generate lattice points
-11526- xtb_calculator_singlepoint: Electronic structure method terminated
-11525- scf: Setup of Coulomb evaluator failed
-11524- type_coulomb_setupBoundaryConditions: Could not setup numerical thresholds
-11523- type_latticepoint_update: Could not generate lattice points
-11522- xtb_calculator_singlepoint: Electronic structure method terminated
-11521- scf: Setup of Coulomb evaluator failed
-11520- type_coulomb_setupBoundaryConditions: Could not setup numerical thresholds
-11519- type_latticepoint_update: Could not generate lattice points
-11518- xtb_calculator_singlepoint: Electronic structure method terminated
-11517- scf: Setup of Coulomb evaluator failed
-11516- type_coulomb_setupBoundaryConditions: Could not setup numerical thresholds
-11515- type_latticepoint_update: Could not generate lattice points
-11514- xtb_calculator_singlepoint: Electronic structure method terminated
-11513- scf: Setup of Coulomb evaluator failed
-11512- type_coulomb_setupBoundaryConditions: Could not setup numerical thresholds
-11511- type_latticepoint_update: Could not generate lattice points
-11510- xtb_calculator_singlepoint: Electronic structure method terminated
-11509- scf: Setup of Coulomb evaluator failed
-11508- type_coulomb_setupBoundaryConditions: Could not setup numerical thresholds
-11507- type_latticepoint_update: Could not generate lattice points
-11506- xtb_calculator_singlepoint: Electronic structure method terminated
-11505- scf: Setup of Coulomb evaluator failed
-11504- type_coulomb_setupBoundaryConditions: Could not setup numerical thresholds
-11503- type_latticepoint_update: Could not generate lattice points
-11502- xtb_calculator_singlepoint: Electronic structure method terminated
-11501- scf: Setup of Coulomb evaluator failed
-11500- type_coulomb_setupBoundaryConditions: Could not setup numerical thresholds
-11499- type_latticepoint_update: Could not generate lattice points
-11498- xtb_calculator_singlepoint: Electronic structure method terminated
-11497- scf: Setup of Coulomb evaluator failed
-11496- type_coulomb_setupBoundaryConditions: Could not setup numerical thresholds
-11495- type_latticepoint_update: Could not generate lattice points
-11494- xtb_calculator_singlepoint: Electronic structure method terminated
-11493- scf: Setup of Coulomb evaluator failed
-11492- type_coulomb_setupBoundaryConditions: Could not setup numerical thresholds
-11491- type_latticepoint_update: Could not generate lattice points
-11490- xtb_calculator_singlepoint: Electronic structure method terminated
-11489- scf: Setup of Coulomb evaluator failed
-11488- type_coulomb_setupBoundaryConditions: Could not setup numerical thresholds
-11487- type_latticepoint_update: Could not generate lattice points
-11486- xtb_calculator_singlepoint: Electronic structure method terminated
-11485- scf: Setup of Coulomb evaluator failed
-11484- type_coulomb_setupBoundaryConditions: Could not setup numerical thresholds
-11483- type_latticepoint_update: Could not generate lattice points
-11482- xtb_calculator_singlepoint: Electronic structure method terminated
-11481- scf: Setup of Coulomb evaluator failed
-11480- type_coulomb_setupBoundaryConditions: Could not setup numerical thresholds
-11479- type_latticepoint_update: Could not generate lattice points
-11478- xtb_calculator_singlepoint: Electronic structure method terminated
-11477- scf: Setup of Coulomb evaluator failed
-11476- type_coulomb_setupBoundaryConditions: Could not setup numerical thresholds
-11475- type_latticepoint_update: Could not generate lattice points
-11474- xtb_calculator_singlepoint: Electronic structure method terminated
-11473- scf: Setup of Coulomb evaluator failed
-11472- type_coulomb_setupBoundaryConditions: Could not setup numerical thresholds
-11471- type_latticepoint_update: Could not generate lattice points
-11470- xtb_calculator_singlepoint: Electronic structure method terminated
-11469- scf: Setup of Coulomb evaluator failed
-11468- type_coulomb_setupBoundaryConditions: Could not setup numerical thresholds
-11467- type_latticepoint_update: Could not generate lattice points
-11466- xtb_calculator_singlepoint: Electronic structure method terminated
-11465- scf: Setup of Coulomb evaluator failed
-11464- type_coulomb_setupBoundaryConditions: Could not setup numerical thresholds
-11463- type_latticepoint_update: Could not generate lattice points
-11462- xtb_calculator_singlepoint: Electronic structure method terminated
-11461- scf: Setup of Coulomb evaluator failed
-11460- type_coulomb_setupBoundaryConditions: Could not setup numerical thresholds
-11459- type_latticepoint_update: Could not generate lattice points
-11458- xtb_calculator_singlepoint: Electronic structure method terminated
-11457- scf: Setup of Coulomb evaluator failed
-11456- type_coulomb_setupBoundaryConditions: Could not setup numerical thresholds
-11455- type_latticepoint_update: Could not generate lattice points
-11454- xtb_calculator_singlepoint: Electronic structure method terminated
-11453- scf: Setup of Coulomb evaluator failed
-11452- type_coulomb_setupBoundaryConditions: Could not setup numerical thresholds
-11451- type_latticepoint_update: Could not generate lattice points
-11450- xtb_calculator_singlepoint: Electronic structure method terminated
-11449- scf: Setup of Coulomb evaluator failed
-11448- type_coulomb_setupBoundaryConditions: Could not setup numerical thresholds
-11447- type_latticepoint_update: Could not generate lattice points
-11446- xtb_calculator_singlepoint: Electronic structure method terminated
-11445- scf: Setup of Coulomb evaluator failed
-11444- type_coulomb_setupBoundaryConditions: Could not setup numerical thresholds
-11443- type_latticepoint_update: Could not generate lattice points
-11442- xtb_calculator_singlepoint: Electronic structure method terminated
-11441- scf: Setup of Coulomb evaluator failed
-11440- type_coulomb_setupBoundaryConditions: Could not setup numerical thresholds
-11439- type_latticepoint_update: Could not generate lattice points
-11438- xtb_calculator_singlepoint: Electronic structure method terminated
-11437- scf: Setup of Coulomb evaluator failed
-11436- type_coulomb_setupBoundaryConditions: Could not setup numerical thresholds
-11435- type_latticepoint_update: Could not generate lattice points
-11434- xtb_calculator_singlepoint: Electronic structure method terminated
-11433- scf: Setup of Coulomb evaluator failed
-11432- type_coulomb_setupBoundaryConditions: Could not setup numerical thresholds
-11431- type_latticepoint_update: Could not generate lattice points
-11430- xtb_calculator_singlepoint: Electronic structure method terminated
-11429- scf: Setup of Coulomb evaluator failed
-11428- type_coulomb_setupBoundaryConditions: Could not setup numerical thresholds
-11427- type_latticepoint_update: Could not generate lattice points
-11426- xtb_calculator_singlepoint: Electronic structure method terminated
-11425- scf: Setup of Coulomb evaluator failed
-11424- type_coulomb_setupBoundaryConditions: Could not setup numerical thresholds
-11423- type_latticepoint_update: Could not generate lattice points
-11422- xtb_calculator_singlepoint: Electronic structure method terminated
-11421- scf: Setup of Coulomb evaluator failed
-11420- type_coulomb_setupBoundaryConditions: Could not setup numerical thresholds
-11419- type_latticepoint_update: Could not generate lattice points
-11418- xtb_calculator_singlepoint: Electronic structure method terminated
-11417- scf: Setup of Coulomb evaluator failed
-11416- type_coulomb_setupBoundaryConditions: Could not setup numerical thresholds
-11415- type_latticepoint_update: Could not generate lattice points
-11414- xtb_calculator_singlepoint: Electronic structure method terminated
-11413- scf: Setup of Coulomb evaluator failed
-11412- type_coulomb_setupBoundaryConditions: Could not setup numerical thresholds
-11411- type_latticepoint_update: Could not generate lattice points
-11410- xtb_calculator_singlepoint: Electronic structure method terminated
-11409- scf: Setup of Coulomb evaluator failed
-11408- type_coulomb_setupBoundaryConditions: Could not setup numerical thresholds
-11407- type_latticepoint_update: Could not generate lattice points
-11406- xtb_calculator_singlepoint: Electronic structure method terminated
-11405- scf: Setup of Coulomb evaluator failed
-11404- type_coulomb_setupBoundaryConditions: Could not setup numerical thresholds
-11403- type_latticepoint_update: Could not generate lattice points
-11402- xtb_calculator_singlepoint: Electronic structure method terminated
-11401- scf: Setup of Coulomb evaluator failed
-11400- type_coulomb_setupBoundaryConditions: Could not setup numerical thresholds
-11399- type_latticepoint_update: Could not generate lattice points
-11398- xtb_calculator_singlepoint: Electronic structure method terminated
-11397- scf: Setup of Coulomb evaluator failed
-11396- type_coulomb_setupBoundaryConditions: Could not setup numerical thresholds
-11395- type_latticepoint_update: Could not generate lattice points
-11394- xtb_calculator_singlepoint: Electronic structure method terminated
-11393- scf: Setup of Coulomb evaluator failed
-11392- type_coulomb_setupBoundaryConditions: Could not setup numerical thresholds
-11391- type_latticepoint_update: Could not generate lattice points
-11390- xtb_calculator_singlepoint: Electronic structure method terminated
-11389- scf: Setup of Coulomb evaluator failed
-11388- type_coulomb_setupBoundaryConditions: Could not setup numerical thresholds
-11387- type_latticepoint_update: Could not generate lattice points
-11386- xtb_calculator_singlepoint: Electronic structure method terminated
-11385- scf: Setup of Coulomb evaluator failed
-11384- type_coulomb_setupBoundaryConditions: Could not setup numerical thresholds
-11383- type_latticepoint_update: Could not generate lattice points
-11382- xtb_calculator_singlepoint: Electronic structure method terminated
-11381- scf: Setup of Coulomb evaluator failed
-11380- type_coulomb_setupBoundaryConditions: Could not setup numerical thresholds
-11379- type_latticepoint_update: Could not generate lattice points
-11378- xtb_calculator_singlepoint: Electronic structure method terminated
-11377- scf: Setup of Coulomb evaluator failed
-11376- type_coulomb_setupBoundaryConditions: Could not setup numerical thresholds
-11375- type_latticepoint_update: Could not generate lattice points
-11374- xtb_calculator_singlepoint: Electronic structure method terminated
-11373- scf: Setup of Coulomb evaluator failed
-11372- type_coulomb_setupBoundaryConditions: Could not setup numerical thresholds
-11371- type_latticepoint_update: Could not generate lattice points
-11370- xtb_calculator_singlepoint: Electronic structure method terminated
-11369- scf: Setup of Coulomb evaluator failed
-11368- type_coulomb_setupBoundaryConditions: Could not setup numerical thresholds
-11367- type_latticepoint_update: Could not generate lattice points
-11366- xtb_calculator_singlepoint: Electronic structure method terminated
-11365- scf: Setup of Coulomb evaluator failed
-11364- type_coulomb_setupBoundaryConditions: Could not setup numerical thresholds
-11363- type_latticepoint_update: Could not generate lattice points
-11362- xtb_calculator_singlepoint: Electronic structure method terminated
-11361- scf: Setup of Coulomb evaluator failed
-11360- type_coulomb_setupBoundaryConditions: Could not setup numerical thresholds
-11359- type_latticepoint_update: Could not generate lattice points
-11358- xtb_calculator_singlepoint: Electronic structure method terminated
-11357- scf: Setup of Coulomb evaluator failed
-11356- type_coulomb_setupBoundaryConditions: Could not setup numerical thresholds
-11355- type_latticepoint_update: Could not generate lattice points
-11354- xtb_calculator_singlepoint: Electronic structure method terminated
-11353- scf: Setup of Coulomb evaluator failed
-11352- type_coulomb_setupBoundaryConditions: Could not setup numerical thresholds
-11351- type_latticepoint_update: Could not generate lattice points
-11350- xtb_calculator_singlepoint: Electronic structure method terminated
-11349- scf: Setup of Coulomb evaluator failed
-11348- type_coulomb_setupBoundaryConditions: Could not setup numerical thresholds
-11347- type_latticepoint_update: Could not generate lattice points
-11346- xtb_calculator_singlepoint: Electronic structure method terminated
-11345- scf: Setup of Coulomb evaluator failed
-11344- type_coulomb_setupBoundaryConditions: Could not setup numerical thresholds
-11343- type_latticepoint_update: Could not generate lattice points
-11342- xtb_calculator_singlepoint: Electronic structure method terminated
-11341- scf: Setup of Coulomb evaluator failed
-11340- type_coulomb_setupBoundaryConditions: Could not setup numerical thresholds
-11339- type_latticepoint_update: Could not generate lattice points
-11338- xtb_calculator_singlepoint: Electronic structure method terminated
-11337- scf: Setup of Coulomb evaluator failed
-11336- type_coulomb_setupBoundaryConditions: Could not setup numerical thresholds
-11335- type_latticepoint_update: Could not generate lattice points
-11334- xtb_calculator_singlepoint: Electronic structure method terminated
-11333- scf: Setup of Coulomb evaluator failed
-11332- type_coulomb_setupBoundaryConditions: Could not setup numerical thresholds
-11331- type_latticepoint_update: Could not generate lattice points
-11330- xtb_calculator_singlepoint: Electronic structure method terminated
-11329- scf: Setup of Coulomb evaluator failed
-11328- type_coulomb_setupBoundaryConditions: Could not setup numerical thresholds
-11327- type_latticepoint_update: Could not generate lattice points
-11326- xtb_calculator_singlepoint: Electronic structure method terminated
-11325- scf: Setup of Coulomb evaluator failed
-11324- type_coulomb_setupBoundaryConditions: Could not setup numerical thresholds
-11323- type_latticepoint_update: Could not generate lattice points
-11322- xtb_calculator_singlepoint: Electronic structure method terminated
-11321- scf: Setup of Coulomb evaluator failed
-11320- type_coulomb_setupBoundaryConditions: Could not setup numerical thresholds
-11319- type_latticepoint_update: Could not generate lattice points
-11318- xtb_calculator_singlepoint: Electronic structure method terminated
-11317- scf: Setup of Coulomb evaluator failed
-11316- type_coulomb_setupBoundaryConditions: Could not setup numerical thresholds
-11315- type_latticepoint_update: Could not generate lattice points
-11314- xtb_calculator_singlepoint: Electronic structure method terminated
-11313- scf: Setup of Coulomb evaluator failed
-11312- type_coulomb_setupBoundaryConditions: Could not setup numerical thresholds
-11311- type_latticepoint_update: Could not generate lattice points
-11310- xtb_calculator_singlepoint: Electronic structure method terminated
-11309- scf: Setup of Coulomb evaluator failed
-11308- type_coulomb_setupBoundaryConditions: Could not setup numerical thresholds
-11307- type_latticepoint_update: Could not generate lattice points
-11306- xtb_calculator_singlepoint: Electronic structure method terminated
-11305- scf: Setup of Coulomb evaluator failed
-11304- type_coulomb_setupBoundaryConditions: Could not setup numerical thresholds
-11303- type_latticepoint_update: Could not generate lattice points
-11302- xtb_calculator_singlepoint: Electronic structure method terminated
-11301- scf: Setup of Coulomb evaluator failed
-11300- type_coulomb_setupBoundaryConditions: Could not setup numerical thresholds
-11299- type_latticepoint_update: Could not generate lattice points
-11298- xtb_calculator_singlepoint: Electronic structure method terminated
-11297- scf: Setup of Coulomb evaluator failed
-11296- type_coulomb_setupBoundaryConditions: Could not setup numerical thresholds
-11295- type_latticepoint_update: Could not generate lattice points
-11294- xtb_calculator_singlepoint: Electronic structure method terminated
-11293- scf: Setup of Coulomb evaluator failed
-11292- type_coulomb_setupBoundaryConditions: Could not setup numerical thresholds
-11291- type_latticepoint_update: Could not generate lattice points
-11290- xtb_calculator_singlepoint: Electronic structure method terminated
-11289- scf: Setup of Coulomb evaluator failed
-11288- type_coulomb_setupBoundaryConditions: Could not setup numerical thresholds
-11287- type_latticepoint_update: Could not generate lattice points
-11286- xtb_calculator_singlepoint: Electronic structure method terminated
-11285- scf: Setup of Coulomb evaluator failed
-11284- type_coulomb_setupBoundaryConditions: Could not setup numerical thresholds
-11283- type_latticepoint_update: Could not generate lattice points
-11282- xtb_calculator_singlepoint: Electronic structure method terminated
-11281- scf: Setup of Coulomb evaluator failed
-11280- type_coulomb_setupBoundaryConditions: Could not setup numerical thresholds
-11279- type_latticepoint_update: Could not generate lattice points
-11278- xtb_calculator_singlepoint: Electronic structure method terminated
-11277- scf: Setup of Coulomb evaluator failed
-11276- type_coulomb_setupBoundaryConditions: Could not setup numerical thresholds
-11275- type_latticepoint_update: Could not generate lattice points
-11274- xtb_calculator_singlepoint: Electronic structure method terminated
-11273- scf: Setup of Coulomb evaluator failed
-11272- type_coulomb_setupBoundaryConditions: Could not setup numerical thresholds
-11271- type_latticepoint_update: Could not generate lattice points
-11270- xtb_calculator_singlepoint: Electronic structure method terminated
-11269- scf: Setup of Coulomb evaluator failed
-11268- type_coulomb_setupBoundaryConditions: Could not setup numerical thresholds
-11267- type_latticepoint_update: Could not generate lattice points
-11266- xtb_calculator_singlepoint: Electronic structure method terminated
-11265- scf: Setup of Coulomb evaluator failed
-11264- type_coulomb_setupBoundaryConditions: Could not setup numerical thresholds
-11263- type_latticepoint_update: Could not generate lattice points
-11262- xtb_calculator_singlepoint: Electronic structure method terminated
-11261- scf: Setup of Coulomb evaluator failed
-11260- type_coulomb_setupBoundaryConditions: Could not setup numerical thresholds
-11259- type_latticepoint_update: Could not generate lattice points
-11258- xtb_calculator_singlepoint: Electronic structure method terminated
-11257- scf: Setup of Coulomb evaluator failed
-11256- type_coulomb_setupBoundaryConditions: Could not setup numerical thresholds
-11255- type_latticepoint_update: Could not generate lattice points
-11254- xtb_calculator_singlepoint: Electronic structure method terminated
-11253- scf: Setup of Coulomb evaluator failed
-11252- type_coulomb_setupBoundaryConditions: Could not setup numerical thresholds
-11251- type_latticepoint_update: Could not generate lattice points
-11250- xtb_calculator_singlepoint: Electronic structure method terminated
-11249- scf: Setup of Coulomb evaluator failed
-11248- type_coulomb_setupBoundaryConditions: Could not setup numerical thresholds
-11247- type_latticepoint_update: Could not generate lattice points
-11246- xtb_calculator_singlepoint: Electronic structure method terminated
-11245- scf: Setup of Coulomb evaluator failed
-11244- type_coulomb_setupBoundaryConditions: Could not setup numerical thresholds
-11243- type_latticepoint_update: Could not generate lattice points
-11242- xtb_calculator_singlepoint: Electronic structure method terminated
-11241- scf: Setup of Coulomb evaluator failed
-11240- type_coulomb_setupBoundaryConditions: Could not setup numerical thresholds
-11239- type_latticepoint_update: Could not generate lattice points
-11238- xtb_calculator_singlepoint: Electronic structure method terminated
-11237- scf: Setup of Coulomb evaluator failed
-11236- type_coulomb_setupBoundaryConditions: Could not setup numerical thresholds
-11235- type_latticepoint_update: Could not generate lattice points
-11234- xtb_calculator_singlepoint: Electronic structure method terminated
-11233- scf: Setup of Coulomb evaluator failed
-11232- type_coulomb_setupBoundaryConditions: Could not setup numerical thresholds
-11231- type_latticepoint_update: Could not generate lattice points
-11230- xtb_calculator_singlepoint: Electronic structure method terminated
-11229- scf: Setup of Coulomb evaluator failed
-11228- type_coulomb_setupBoundaryConditions: Could not setup numerical thresholds
-11227- type_latticepoint_update: Could not generate lattice points
-11226- xtb_calculator_singlepoint: Electronic structure method terminated
-11225- scf: Setup of Coulomb evaluator failed
-11224- type_coulomb_setupBoundaryConditions: Could not setup numerical thresholds
-11223- type_latticepoint_update: Could not generate lattice points
-11222- xtb_calculator_singlepoint: Electronic structure method terminated
-11221- scf: Setup of Coulomb evaluator failed
-11220- type_coulomb_setupBoundaryConditions: Could not setup numerical thresholds
-11219- type_latticepoint_update: Could not generate lattice points
-11218- xtb_calculator_singlepoint: Electronic structure method terminated
-11217- scf: Setup of Coulomb evaluator failed
-11216- type_coulomb_setupBoundaryConditions: Could not setup numerical thresholds
-11215- type_latticepoint_update: Could not generate lattice points
-11214- xtb_calculator_singlepoint: Electronic structure method terminated
-11213- scf: Setup of Coulomb evaluator failed
-11212- type_coulomb_setupBoundaryConditions: Could not setup numerical thresholds
-11211- type_latticepoint_update: Could not generate lattice points
-11210- xtb_calculator_singlepoint: Electronic structure method terminated
-11209- scf: Setup of Coulomb evaluator failed
-11208- type_coulomb_setupBoundaryConditions: Could not setup numerical thresholds
-11207- type_latticepoint_update: Could not generate lattice points
-11206- xtb_calculator_singlepoint: Electronic structure method terminated
-11205- scf: Setup of Coulomb evaluator failed
-11204- type_coulomb_setupBoundaryConditions: Could not setup numerical thresholds
-11203- type_latticepoint_update: Could not generate lattice points
-11202- xtb_calculator_singlepoint: Electronic structure method terminated
-11201- scf: Setup of Coulomb evaluator failed
-11200- type_coulomb_setupBoundaryConditions: Could not setup numerical thresholds
-11199- type_latticepoint_update: Could not generate lattice points
-11198- xtb_calculator_singlepoint: Electronic structure method terminated
-11197- scf: Setup of Coulomb evaluator failed
-11196- type_coulomb_setupBoundaryConditions: Could not setup numerical thresholds
-11195- type_latticepoint_update: Could not generate lattice points
-11194- xtb_calculator_singlepoint: Electronic structure method terminated
-11193- scf: Setup of Coulomb evaluator failed
-11192- type_coulomb_setupBoundaryConditions: Could not setup numerical thresholds
-11191- type_latticepoint_update: Could not generate lattice points
-11190- xtb_calculator_singlepoint: Electronic structure method terminated
-11189- scf: Setup of Coulomb evaluator failed
-11188- type_coulomb_setupBoundaryConditions: Could not setup numerical thresholds
-11187- type_latticepoint_update: Could not generate lattice points
-11186- xtb_calculator_singlepoint: Electronic structure method terminated
-11185- scf: Setup of Coulomb evaluator failed
-11184- type_coulomb_setupBoundaryConditions: Could not setup numerical thresholds
-11183- type_latticepoint_update: Could not generate lattice points
-11182- xtb_calculator_singlepoint: Electronic structure method terminated
-11181- scf: Setup of Coulomb evaluator failed
-11180- type_coulomb_setupBoundaryConditions: Could not setup numerical thresholds
-11179- type_latticepoint_update: Could not generate lattice points
-11178- xtb_calculator_singlepoint: Electronic structure method terminated
-11177- scf: Setup of Coulomb evaluator failed
-11176- type_coulomb_setupBoundaryConditions: Could not setup numerical thresholds
-11175- type_latticepoint_update: Could not generate lattice points
-11174- xtb_calculator_singlepoint: Electronic structure method terminated
-11173- scf: Setup of Coulomb evaluator failed
-11172- type_coulomb_setupBoundaryConditions: Could not setup numerical thresholds
-11171- type_latticepoint_update: Could not generate lattice points
-11170- xtb_calculator_singlepoint: Electronic structure method terminated
-11169- scf: Setup of Coulomb evaluator failed
-11168- type_coulomb_setupBoundaryConditions: Could not setup numerical thresholds
-11167- type_latticepoint_update: Could not generate lattice points
-11166- xtb_calculator_singlepoint: Electronic structure method terminated
-11165- scf: Setup of Coulomb evaluator failed
-11164- type_coulomb_setupBoundaryConditions: Could not setup numerical thresholds
-11163- type_latticepoint_update: Could not generate lattice points
-11162- xtb_calculator_singlepoint: Electronic structure method terminated
-11161- scf: Setup of Coulomb evaluator failed
-11160- type_coulomb_setupBoundaryConditions: Could not setup numerical thresholds
-11159- type_latticepoint_update: Could not generate lattice points
-11158- xtb_calculator_singlepoint: Electronic structure method terminated
-11157- scf: Setup of Coulomb evaluator failed
-11156- type_coulomb_setupBoundaryConditions: Could not setup numerical thresholds
-11155- type_latticepoint_update: Could not generate lattice points
-11154- xtb_calculator_singlepoint: Electronic structure method terminated
-11153- scf: Setup of Coulomb evaluator failed
-11152- type_coulomb_setupBoundaryConditions: Could not setup numerical thresholds
-11151- type_latticepoint_update: Could not generate lattice points
-11150- xtb_calculator_singlepoint: Electronic structure method terminated
-11149- scf: Setup of Coulomb evaluator failed
-11148- type_coulomb_setupBoundaryConditions: Could not setup numerical thresholds
-11147- type_latticepoint_update: Could not generate lattice points
-11146- xtb_calculator_singlepoint: Electronic structure method terminated
-11145- scf: Setup of Coulomb evaluator failed
-11144- type_coulomb_setupBoundaryConditions: Could not setup numerical thresholds
-11143- type_latticepoint_update: Could not generate lattice points
-11142- xtb_calculator_singlepoint: Electronic structure method terminated
-11141- scf: Setup of Coulomb evaluator failed
-11140- type_coulomb_setupBoundaryConditions: Could not setup numerical thresholds
-11139- type_latticepoint_update: Could not generate lattice points
-11138- xtb_calculator_singlepoint: Electronic structure method terminated
-11137- scf: Setup of Coulomb evaluator failed
-11136- type_coulomb_setupBoundaryConditions: Could not setup numerical thresholds
-11135- type_latticepoint_update: Could not generate lattice points
-11134- xtb_calculator_singlepoint: Electronic structure method terminated
-11133- scf: Setup of Coulomb evaluator failed
-11132- type_coulomb_setupBoundaryConditions: Could not setup numerical thresholds
-11131- type_latticepoint_update: Could not generate lattice points
-11130- xtb_calculator_singlepoint: Electronic structure method terminated
-11129- scf: Setup of Coulomb evaluator failed
-11128- type_coulomb_setupBoundaryConditions: Could not setup numerical thresholds
-11127- type_latticepoint_update: Could not generate lattice points
-11126- xtb_calculator_singlepoint: Electronic structure method terminated
-11125- scf: Setup of Coulomb evaluator failed
-11124- type_coulomb_setupBoundaryConditions: Could not setup numerical thresholds
-11123- type_latticepoint_update: Could not generate lattice points
-11122- xtb_calculator_singlepoint: Electronic structure method terminated
-11121- scf: Setup of Coulomb evaluator failed
-11120- type_coulomb_setupBoundaryConditions: Could not setup numerical thresholds
-11119- type_latticepoint_update: Could not generate lattice points
-11118- xtb_calculator_singlepoint: Electronic structure method terminated
-11117- scf: Setup of Coulomb evaluator failed
-11116- type_coulomb_setupBoundaryConditions: Could not setup numerical thresholds
-11115- type_latticepoint_update: Could not generate lattice points
-11114- xtb_calculator_singlepoint: Electronic structure method terminated
-11113- scf: Setup of Coulomb evaluator failed
-11112- type_coulomb_setupBoundaryConditions: Could not setup numerical thresholds
-11111- type_latticepoint_update: Could not generate lattice points
-11110- xtb_calculator_singlepoint: Electronic structure method terminated
-11109- scf: Setup of Coulomb evaluator failed
-11108- type_coulomb_setupBoundaryConditions: Could not setup numerical thresholds
-11107- type_latticepoint_update: Could not generate lattice points
-11106- xtb_calculator_singlepoint: Electronic structure method terminated
-11105- scf: Setup of Coulomb evaluator failed
-11104- type_coulomb_setupBoundaryConditions: Could not setup numerical thresholds
-11103- type_latticepoint_update: Could not generate lattice points
-11102- xtb_calculator_singlepoint: Electronic structure method terminated
-11101- scf: Setup of Coulomb evaluator failed
-11100- type_coulomb_setupBoundaryConditions: Could not setup numerical thresholds
-11099- type_latticepoint_update: Could not generate lattice points
-11098- xtb_calculator_singlepoint: Electronic structure method terminated
-11097- scf: Setup of Coulomb evaluator failed
-11096- type_coulomb_setupBoundaryConditions: Could not setup numerical thresholds
-11095- type_latticepoint_update: Could not generate lattice points
-11094- xtb_calculator_singlepoint: Electronic structure method terminated
-11093- scf: Setup of Coulomb evaluator failed
-11092- type_coulomb_setupBoundaryConditions: Could not setup numerical thresholds
-11091- type_latticepoint_update: Could not generate lattice points
-11090- xtb_calculator_singlepoint: Electronic structure method terminated
-11089- scf: Setup of Coulomb evaluator failed
-11088- type_coulomb_setupBoundaryConditions: Could not setup numerical thresholds
-11087- type_latticepoint_update: Could not generate lattice points
-11086- xtb_calculator_singlepoint: Electronic structure method terminated
-11085- scf: Setup of Coulomb evaluator failed
-11084- type_coulomb_setupBoundaryConditions: Could not setup numerical thresholds
-11083- type_latticepoint_update: Could not generate lattice points
-11082- xtb_calculator_singlepoint: Electronic structure method terminated
-11081- scf: Setup of Coulomb evaluator failed
-11080- type_coulomb_setupBoundaryConditions: Could not setup numerical thresholds
-11079- type_latticepoint_update: Could not generate lattice points
-11078- xtb_calculator_singlepoint: Electronic structure method terminated
-11077- scf: Setup of Coulomb evaluator failed
-11076- type_coulomb_setupBoundaryConditions: Could not setup numerical thresholds
-11075- type_latticepoint_update: Could not generate lattice points
-11074- xtb_calculator_singlepoint: Electronic structure method terminated
-11073- scf: Setup of Coulomb evaluator failed
-11072- type_coulomb_setupBoundaryConditions: Could not setup numerical thresholds
-11071- type_latticepoint_update: Could not generate lattice points
-11070- xtb_calculator_singlepoint: Electronic structure method terminated
-11069- scf: Setup of Coulomb evaluator failed
-11068- type_coulomb_setupBoundaryConditions: Could not setup numerical thresholds
-11067- type_latticepoint_update: Could not generate lattice points
-11066- xtb_calculator_singlepoint: Electronic structure method terminated
-11065- scf: Setup of Coulomb evaluator failed
-11064- type_coulomb_setupBoundaryConditions: Could not setup numerical thresholds
-11063- type_latticepoint_update: Could not generate lattice points
-11062- xtb_calculator_singlepoint: Electronic structure method terminated
-11061- scf: Setup of Coulomb evaluator failed
-11060- type_coulomb_setupBoundaryConditions: Could not setup numerical thresholds
-11059- type_latticepoint_update: Could not generate lattice points
-11058- xtb_calculator_singlepoint: Electronic structure method terminated
-11057- scf: Setup of Coulomb evaluator failed
-11056- type_coulomb_setupBoundaryConditions: Could not setup numerical thresholds
-11055- type_latticepoint_update: Could not generate lattice points
-11054- xtb_calculator_singlepoint: Electronic structure method terminated
-11053- scf: Setup of Coulomb evaluator failed
-11052- type_coulomb_setupBoundaryConditions: Could not setup numerical thresholds
-11051- type_latticepoint_update: Could not generate lattice points
-11050- xtb_calculator_singlepoint: Electronic structure method terminated
-11049- scf: Setup of Coulomb evaluator failed
-11048- type_coulomb_setupBoundaryConditions: Could not setup numerical thresholds
-11047- type_latticepoint_update: Could not generate lattice points
-11046- xtb_calculator_singlepoint: Electronic structure method terminated
-11045- scf: Setup of Coulomb evaluator failed
-11044- type_coulomb_setupBoundaryConditions: Could not setup numerical thresholds
-11043- type_latticepoint_update: Could not generate lattice points
-11042- xtb_calculator_singlepoint: Electronic structure method terminated
-11041- scf: Setup of Coulomb evaluator failed
-11040- type_coulomb_setupBoundaryConditions: Could not setup numerical thresholds
-11039- type_latticepoint_update: Could not generate lattice points
-11038- xtb_calculator_singlepoint: Electronic structure method terminated
-11037- scf: Setup of Coulomb evaluator failed
-11036- type_coulomb_setupBoundaryConditions: Could not setup numerical thresholds
-11035- type_latticepoint_update: Could not generate lattice points
-11034- xtb_calculator_singlepoint: Electronic structure method terminated
-11033- scf: Setup of Coulomb evaluator failed
-11032- type_coulomb_setupBoundaryConditions: Could not setup numerical thresholds
-11031- type_latticepoint_update: Could not generate lattice points
-11030- xtb_calculator_singlepoint: Electronic structure method terminated
-11029- scf: Setup of Coulomb evaluator failed
-11028- type_coulomb_setupBoundaryConditions: Could not setup numerical thresholds
-11027- type_latticepoint_update: Could not generate lattice points
-11026- xtb_calculator_singlepoint: Electronic structure method terminated
-11025- scf: Setup of Coulomb evaluator failed
-11024- type_coulomb_setupBoundaryConditions: Could not setup numerical thresholds
-11023- type_latticepoint_update: Could not generate lattice points
-11022- xtb_calculator_singlepoint: Electronic structure method terminated
-11021- scf: Setup of Coulomb evaluator failed
-11020- type_coulomb_setupBoundaryConditions: Could not setup numerical thresholds
-11019- type_latticepoint_update: Could not generate lattice points
-11018- xtb_calculator_singlepoint: Electronic structure method terminated
-11017- scf: Setup of Coulomb evaluator failed
-11016- type_coulomb_setupBoundaryConditions: Could not setup numerical thresholds
-11015- type_latticepoint_update: Could not generate lattice points
-11014- xtb_calculator_singlepoint: Electronic structure method terminated
-11013- scf: Setup of Coulomb evaluator failed
-11012- type_coulomb_setupBoundaryConditions: Could not setup numerical thresholds
-11011- type_latticepoint_update: Could not generate lattice points
-11010- xtb_calculator_singlepoint: Electronic structure method terminated
-11009- scf: Setup of Coulomb evaluator failed
-11008- type_coulomb_setupBoundaryConditions: Could not setup numerical thresholds
-11007- type_latticepoint_update: Could not generate lattice points
-11006- xtb_calculator_singlepoint: Electronic structure method terminated
-11005- scf: Setup of Coulomb evaluator failed
-11004- type_coulomb_setupBoundaryConditions: Could not setup numerical thresholds
-11003- type_latticepoint_update: Could not generate lattice points
-11002- xtb_calculator_singlepoint: Electronic structure method terminated
-11001- scf: Setup of Coulomb evaluator failed
-11000- type_coulomb_setupBoundaryConditions: Could not setup numerical thresholds
-10999- type_latticepoint_update: Could not generate lattice points
-10998- xtb_calculator_singlepoint: Electronic structure method terminated
-10997- scf: Setup of Coulomb evaluator failed
-10996- type_coulomb_setupBoundaryConditions: Could not setup numerical thresholds
-10995- type_latticepoint_update: Could not generate lattice points
-10994- xtb_calculator_singlepoint: Electronic structure method terminated
-10993- scf: Setup of Coulomb evaluator failed
-10992- type_coulomb_setupBoundaryConditions: Could not setup numerical thresholds
-10991- type_latticepoint_update: Could not generate lattice points
-10990- xtb_calculator_singlepoint: Electronic structure method terminated
-10989- scf: Setup of Coulomb evaluator failed
-10988- type_coulomb_setupBoundaryConditions: Could not setup numerical thresholds
-10987- type_latticepoint_update: Could not generate lattice points
-10986- xtb_calculator_singlepoint: Electronic structure method terminated
-10985- scf: Setup of Coulomb evaluator failed
-10984- type_coulomb_setupBoundaryConditions: Could not setup numerical thresholds
-10983- type_latticepoint_update: Could not generate lattice points
-10982- xtb_calculator_singlepoint: Electronic structure method terminated
-10981- scf: Setup of Coulomb evaluator failed
-10980- type_coulomb_setupBoundaryConditions: Could not setup numerical thresholds
-10979- type_latticepoint_update: Could not generate lattice points
-10978- xtb_calculator_singlepoint: Electronic structure method terminated
-10977- scf: Setup of Coulomb evaluator failed
-10976- type_coulomb_setupBoundaryConditions: Could not setup numerical thresholds
-10975- type_latticepoint_update: Could not generate lattice points
-10974- xtb_calculator_singlepoint: Electronic structure method terminated
-10973- scf: Setup of Coulomb evaluator failed
-10972- type_coulomb_setupBoundaryConditions: Could not setup numerical thresholds
-10971- type_latticepoint_update: Could not generate lattice points
-10970- xtb_calculator_singlepoint: Electronic structure method terminated
-10969- scf: Setup of Coulomb evaluator failed
-10968- type_coulomb_setupBoundaryConditions: Could not setup numerical thresholds
-10967- type_latticepoint_update: Could not generate lattice points
-10966- xtb_calculator_singlepoint: Electronic structure method terminated
-10965- scf: Setup of Coulomb evaluator failed
-10964- type_coulomb_setupBoundaryConditions: Could not setup numerical thresholds
-10963- type_latticepoint_update: Could not generate lattice points
-10962- xtb_calculator_singlepoint: Electronic structure method terminated
-10961- scf: Setup of Coulomb evaluator failed
-10960- type_coulomb_setupBoundaryConditions: Could not setup numerical thresholds
-10959- type_latticepoint_update: Could not generate lattice points
-10958- xtb_calculator_singlepoint: Electronic structure method terminated
-10957- scf: Setup of Coulomb evaluator failed
-10956- type_coulomb_setupBoundaryConditions: Could not setup numerical thresholds
-10955- type_latticepoint_update: Could not generate lattice points
-10954- xtb_calculator_singlepoint: Electronic structure method terminated
-10953- scf: Setup of Coulomb evaluator failed
-10952- type_coulomb_setupBoundaryConditions: Could not setup numerical thresholds
-10951- type_latticepoint_update: Could not generate lattice points
-10950- xtb_calculator_singlepoint: Electronic structure method terminated
-10949- scf: Setup of Coulomb evaluator failed
-10948- type_coulomb_setupBoundaryConditions: Could not setup numerical thresholds
-10947- type_latticepoint_update: Could not generate lattice points
-10946- xtb_calculator_singlepoint: Electronic structure method terminated
-10945- scf: Setup of Coulomb evaluator failed
-10944- type_coulomb_setupBoundaryConditions: Could not setup numerical thresholds
-10943- type_latticepoint_update: Could not generate lattice points
-10942- xtb_calculator_singlepoint: Electronic structure method terminated
-10941- scf: Setup of Coulomb evaluator failed
-10940- type_coulomb_setupBoundaryConditions: Could not setup numerical thresholds
-10939- type_latticepoint_update: Could not generate lattice points
-10938- xtb_calculator_singlepoint: Electronic structure method terminated
-10937- scf: Setup of Coulomb evaluator failed
-10936- type_coulomb_setupBoundaryConditions: Could not setup numerical thresholds
-10935- type_latticepoint_update: Could not generate lattice points
-10934- xtb_calculator_singlepoint: Electronic structure method terminated
-10933- scf: Setup of Coulomb evaluator failed
-10932- type_coulomb_setupBoundaryConditions: Could not setup numerical thresholds
-10931- type_latticepoint_update: Could not generate lattice points
-10930- xtb_calculator_singlepoint: Electronic structure method terminated
-10929- scf: Setup of Coulomb evaluator failed
-10928- type_coulomb_setupBoundaryConditions: Could not setup numerical thresholds
-10927- type_latticepoint_update: Could not generate lattice points
-10926- xtb_calculator_singlepoint: Electronic structure method terminated
-10925- scf: Setup of Coulomb evaluator failed
-10924- type_coulomb_setupBoundaryConditions: Could not setup numerical thresholds
-10923- type_latticepoint_update: Could not generate lattice points
-10922- xtb_calculator_singlepoint: Electronic structure method terminated
-10921- scf: Setup of Coulomb evaluator failed
-10920- type_coulomb_setupBoundaryConditions: Could not setup numerical thresholds
-10919- type_latticepoint_update: Could not generate lattice points
-10918- xtb_calculator_singlepoint: Electronic structure method terminated
-10917- scf: Setup of Coulomb evaluator failed
-10916- type_coulomb_setupBoundaryConditions: Could not setup numerical thresholds
-10915- type_latticepoint_update: Could not generate lattice points
-10914- xtb_calculator_singlepoint: Electronic structure method terminated
-10913- scf: Setup of Coulomb evaluator failed
-10912- type_coulomb_setupBoundaryConditions: Could not setup numerical thresholds
-10911- type_latticepoint_update: Could not generate lattice points
-10910- xtb_calculator_singlepoint: Electronic structure method terminated
-10909- scf: Setup of Coulomb evaluator failed
-10908- type_coulomb_setupBoundaryConditions: Could not setup numerical thresholds
-10907- type_latticepoint_update: Could not generate lattice points
-10906- xtb_calculator_singlepoint: Electronic structure method terminated
-10905- scf: Setup of Coulomb evaluator failed
-10904- type_coulomb_setupBoundaryConditions: Could not setup numerical thresholds
-10903- type_latticepoint_update: Could not generate lattice points
-10902- xtb_calculator_singlepoint: Electronic structure method terminated
-10901- scf: Setup of Coulomb evaluator failed
-10900- type_coulomb_setupBoundaryConditions: Could not setup numerical thresholds
-10899- type_latticepoint_update: Could not generate lattice points
-10898- xtb_calculator_singlepoint: Electronic structure method terminated
-10897- scf: Setup of Coulomb evaluator failed
-10896- type_coulomb_setupBoundaryConditions: Could not setup numerical thresholds
-10895- type_latticepoint_update: Could not generate lattice points
-10894- xtb_calculator_singlepoint: Electronic structure method terminated
-10893- scf: Setup of Coulomb evaluator failed
-10892- type_coulomb_setupBoundaryConditions: Could not setup numerical thresholds
-10891- type_latticepoint_update: Could not generate lattice points
-10890- xtb_calculator_singlepoint: Electronic structure method terminated
-10889- scf: Setup of Coulomb evaluator failed
-10888- type_coulomb_setupBoundaryConditions: Could not setup numerical thresholds
-10887- type_latticepoint_update: Could not generate lattice points
-10886- xtb_calculator_singlepoint: Electronic structure method terminated
-10885- scf: Setup of Coulomb evaluator failed
-10884- type_coulomb_setupBoundaryConditions: Could not setup numerical thresholds
-10883- type_latticepoint_update: Could not generate lattice points
-10882- xtb_calculator_singlepoint: Electronic structure method terminated
-10881- scf: Setup of Coulomb evaluator failed
-10880- type_coulomb_setupBoundaryConditions: Could not setup numerical thresholds
-10879- type_latticepoint_update: Could not generate lattice points
-10878- xtb_calculator_singlepoint: Electronic structure method terminated
-10877- scf: Setup of Coulomb evaluator failed
-10876- type_coulomb_setupBoundaryConditions: Could not setup numerical thresholds
-10875- type_latticepoint_update: Could not generate lattice points
-10874- xtb_calculator_singlepoint: Electronic structure method terminated
-10873- scf: Setup of Coulomb evaluator failed
-10872- type_coulomb_setupBoundaryConditions: Could not setup numerical thresholds
-10871- type_latticepoint_update: Could not generate lattice points
-10870- xtb_calculator_singlepoint: Electronic structure method terminated
-10869- scf: Setup of Coulomb evaluator failed
-10868- type_coulomb_setupBoundaryConditions: Could not setup numerical thresholds
-10867- type_latticepoint_update: Could not generate lattice points
-10866- xtb_calculator_singlepoint: Electronic structure method terminated
-10865- scf: Setup of Coulomb evaluator failed
-10864- type_coulomb_setupBoundaryConditions: Could not setup numerical thresholds
-10863- type_latticepoint_update: Could not generate lattice points
-10862- xtb_calculator_singlepoint: Electronic structure method terminated
-10861- scf: Setup of Coulomb evaluator failed
-10860- type_coulomb_setupBoundaryConditions: Could not setup numerical thresholds
-10859- type_latticepoint_update: Could not generate lattice points
-10858- xtb_calculator_singlepoint: Electronic structure method terminated
-10857- scf: Setup of Coulomb evaluator failed
-10856- type_coulomb_setupBoundaryConditions: Could not setup numerical thresholds
-10855- type_latticepoint_update: Could not generate lattice points
-10854- xtb_calculator_singlepoint: Electronic structure method terminated
-10853- scf: Setup of Coulomb evaluator failed
-10852- type_coulomb_setupBoundaryConditions: Could not setup numerical thresholds
-10851- type_latticepoint_update: Could not generate lattice points
-10850- xtb_calculator_singlepoint: Electronic structure method terminated
-10849- scf: Setup of Coulomb evaluator failed
-10848- type_coulomb_setupBoundaryConditions: Could not setup numerical thresholds
-10847- type_latticepoint_update: Could not generate lattice points
-10846- xtb_calculator_singlepoint: Electronic structure method terminated
-10845- scf: Setup of Coulomb evaluator failed
-10844- type_coulomb_setupBoundaryConditions: Could not setup numerical thresholds
-10843- type_latticepoint_update: Could not generate lattice points
-10842- xtb_calculator_singlepoint: Electronic structure method terminated
-10841- scf: Setup of Coulomb evaluator failed
-10840- type_coulomb_setupBoundaryConditions: Could not setup numerical thresholds
-10839- type_latticepoint_update: Could not generate lattice points
-10838- xtb_calculator_singlepoint: Electronic structure method terminated
-10837- scf: Setup of Coulomb evaluator failed
-10836- type_coulomb_setupBoundaryConditions: Could not setup numerical thresholds
-10835- type_latticepoint_update: Could not generate lattice points
-10834- xtb_calculator_singlepoint: Electronic structure method terminated
-10833- scf: Setup of Coulomb evaluator failed
-10832- type_coulomb_setupBoundaryConditions: Could not setup numerical thresholds
-10831- type_latticepoint_update: Could not generate lattice points
-10830- xtb_calculator_singlepoint: Electronic structure method terminated
-10829- scf: Setup of Coulomb evaluator failed
-10828- type_coulomb_setupBoundaryConditions: Could not setup numerical thresholds
-10827- type_latticepoint_update: Could not generate lattice points
-10826- xtb_calculator_singlepoint: Electronic structure method terminated
-10825- scf: Setup of Coulomb evaluator failed
-10824- type_coulomb_setupBoundaryConditions: Could not setup numerical thresholds
-10823- type_latticepoint_update: Could not generate lattice points
-10822- xtb_calculator_singlepoint: Electronic structure method terminated
-10821- scf: Setup of Coulomb evaluator failed
-10820- type_coulomb_setupBoundaryConditions: Could not setup numerical thresholds
-10819- type_latticepoint_update: Could not generate lattice points
-10818- xtb_calculator_singlepoint: Electronic structure method terminated
-10817- scf: Setup of Coulomb evaluator failed
-10816- type_coulomb_setupBoundaryConditions: Could not setup numerical thresholds
-10815- type_latticepoint_update: Could not generate lattice points
-10814- xtb_calculator_singlepoint: Electronic structure method terminated
-10813- scf: Setup of Coulomb evaluator failed
-10812- type_coulomb_setupBoundaryConditions: Could not setup numerical thresholds
-10811- type_latticepoint_update: Could not generate lattice points
-10810- xtb_calculator_singlepoint: Electronic structure method terminated
-10809- scf: Setup of Coulomb evaluator failed
-10808- type_coulomb_setupBoundaryConditions: Could not setup numerical thresholds
-10807- type_latticepoint_update: Could not generate lattice points
-10806- xtb_calculator_singlepoint: Electronic structure method terminated
-10805- scf: Setup of Coulomb evaluator failed
-10804- type_coulomb_setupBoundaryConditions: Could not setup numerical thresholds
-10803- type_latticepoint_update: Could not generate lattice points
-10802- xtb_calculator_singlepoint: Electronic structure method terminated
-10801- scf: Setup of Coulomb evaluator failed
-10800- type_coulomb_setupBoundaryConditions: Could not setup numerical thresholds
-10799- type_latticepoint_update: Could not generate lattice points
-10798- xtb_calculator_singlepoint: Electronic structure method terminated
-10797- scf: Setup of Coulomb evaluator failed
-10796- type_coulomb_setupBoundaryConditions: Could not setup numerical thresholds
-10795- type_latticepoint_update: Could not generate lattice points
-10794- xtb_calculator_singlepoint: Electronic structure method terminated
-10793- scf: Setup of Coulomb evaluator failed
-10792- type_coulomb_setupBoundaryConditions: Could not setup numerical thresholds
-10791- type_latticepoint_update: Could not generate lattice points
-10790- xtb_calculator_singlepoint: Electronic structure method terminated
-10789- scf: Setup of Coulomb evaluator failed
-10788- type_coulomb_setupBoundaryConditions: Could not setup numerical thresholds
-10787- type_latticepoint_update: Could not generate lattice points
-10786- xtb_calculator_singlepoint: Electronic structure method terminated
-10785- scf: Setup of Coulomb evaluator failed
-10784- type_coulomb_setupBoundaryConditions: Could not setup numerical thresholds
-10783- type_latticepoint_update: Could not generate lattice points
-10782- xtb_calculator_singlepoint: Electronic structure method terminated
-10781- scf: Setup of Coulomb evaluator failed
-10780- type_coulomb_setupBoundaryConditions: Could not setup numerical thresholds
-10779- type_latticepoint_update: Could not generate lattice points
-10778- xtb_calculator_singlepoint: Electronic structure method terminated
-10777- scf: Setup of Coulomb evaluator failed
-10776- type_coulomb_setupBoundaryConditions: Could not setup numerical thresholds
-10775- type_latticepoint_update: Could not generate lattice points
-10774- xtb_calculator_singlepoint: Electronic structure method terminated
-10773- scf: Setup of Coulomb evaluator failed
-10772- type_coulomb_setupBoundaryConditions: Could not setup numerical thresholds
-10771- type_latticepoint_update: Could not generate lattice points
-10770- xtb_calculator_singlepoint: Electronic structure method terminated
-10769- scf: Setup of Coulomb evaluator failed
-10768- type_coulomb_setupBoundaryConditions: Could not setup numerical thresholds
-10767- type_latticepoint_update: Could not generate lattice points
-10766- xtb_calculator_singlepoint: Electronic structure method terminated
-10765- scf: Setup of Coulomb evaluator failed
-10764- type_coulomb_setupBoundaryConditions: Could not setup numerical thresholds
-10763- type_latticepoint_update: Could not generate lattice points
-10762- xtb_calculator_singlepoint: Electronic structure method terminated
-10761- scf: Setup of Coulomb evaluator failed
-10760- type_coulomb_setupBoundaryConditions: Could not setup numerical thresholds
-10759- type_latticepoint_update: Could not generate lattice points
-10758- xtb_calculator_singlepoint: Electronic structure method terminated
-10757- scf: Setup of Coulomb evaluator failed
-10756- type_coulomb_setupBoundaryConditions: Could not setup numerical thresholds
-10755- type_latticepoint_update: Could not generate lattice points
-10754- xtb_calculator_singlepoint: Electronic structure method terminated
-10753- scf: Setup of Coulomb evaluator failed
-10752- type_coulomb_setupBoundaryConditions: Could not setup numerical thresholds
-10751- type_latticepoint_update: Could not generate lattice points
-10750- xtb_calculator_singlepoint: Electronic structure method terminated
-10749- scf: Setup of Coulomb evaluator failed
-10748- type_coulomb_setupBoundaryConditions: Could not setup numerical thresholds
-10747- type_latticepoint_update: Could not generate lattice points
-10746- xtb_calculator_singlepoint: Electronic structure method terminated
-10745- scf: Setup of Coulomb evaluator failed
-10744- type_coulomb_setupBoundaryConditions: Could not setup numerical thresholds
-10743- type_latticepoint_update: Could not generate lattice points
-10742- xtb_calculator_singlepoint: Electronic structure method terminated
-10741- scf: Setup of Coulomb evaluator failed
-10740- type_coulomb_setupBoundaryConditions: Could not setup numerical thresholds
-10739- type_latticepoint_update: Could not generate lattice points
-10738- xtb_calculator_singlepoint: Electronic structure method terminated
-10737- scf: Setup of Coulomb evaluator failed
-10736- type_coulomb_setupBoundaryConditions: Could not setup numerical thresholds
-10735- type_latticepoint_update: Could not generate lattice points
-10734- xtb_calculator_singlepoint: Electronic structure method terminated
-10733- scf: Setup of Coulomb evaluator failed
-10732- type_coulomb_setupBoundaryConditions: Could not setup numerical thresholds
-10731- type_latticepoint_update: Could not generate lattice points
-10730- xtb_calculator_singlepoint: Electronic structure method terminated
-10729- scf: Setup of Coulomb evaluator failed
-10728- type_coulomb_setupBoundaryConditions: Could not setup numerical thresholds
-10727- type_latticepoint_update: Could not generate lattice points
-10726- xtb_calculator_singlepoint: Electronic structure method terminated
-10725- scf: Setup of Coulomb evaluator failed
-10724- type_coulomb_setupBoundaryConditions: Could not setup numerical thresholds
-10723- type_latticepoint_update: Could not generate lattice points
-10722- xtb_calculator_singlepoint: Electronic structure method terminated
-10721- scf: Setup of Coulomb evaluator failed
-10720- type_coulomb_setupBoundaryConditions: Could not setup numerical thresholds
-10719- type_latticepoint_update: Could not generate lattice points
-10718- xtb_calculator_singlepoint: Electronic structure method terminated
-10717- scf: Setup of Coulomb evaluator failed
-10716- type_coulomb_setupBoundaryConditions: Could not setup numerical thresholds
-10715- type_latticepoint_update: Could not generate lattice points
-10714- xtb_calculator_singlepoint: Electronic structure method terminated
-10713- scf: Setup of Coulomb evaluator failed
-10712- type_coulomb_setupBoundaryConditions: Could not setup numerical thresholds
-10711- type_latticepoint_update: Could not generate lattice points
-10710- xtb_calculator_singlepoint: Electronic structure method terminated
-10709- scf: Setup of Coulomb evaluator failed
-10708- type_coulomb_setupBoundaryConditions: Could not setup numerical thresholds
-10707- type_latticepoint_update: Could not generate lattice points
-10706- xtb_calculator_singlepoint: Electronic structure method terminated
-10705- scf: Setup of Coulomb evaluator failed
-10704- type_coulomb_setupBoundaryConditions: Could not setup numerical thresholds
-10703- type_latticepoint_update: Could not generate lattice points
-10702- xtb_calculator_singlepoint: Electronic structure method terminated
-10701- scf: Setup of Coulomb evaluator failed
-10700- type_coulomb_setupBoundaryConditions: Could not setup numerical thresholds
-10699- type_latticepoint_update: Could not generate lattice points
-10698- xtb_calculator_singlepoint: Electronic structure method terminated
-10697- scf: Setup of Coulomb evaluator failed
-10696- type_coulomb_setupBoundaryConditions: Could not setup numerical thresholds
-10695- type_latticepoint_update: Could not generate lattice points
-10694- xtb_calculator_singlepoint: Electronic structure method terminated
-10693- scf: Setup of Coulomb evaluator failed
-10692- type_coulomb_setupBoundaryConditions: Could not setup numerical thresholds
-10691- type_latticepoint_update: Could not generate lattice points
-10690- xtb_calculator_singlepoint: Electronic structure method terminated
-10689- scf: Setup of Coulomb evaluator failed
-10688- type_coulomb_setupBoundaryConditions: Could not setup numerical thresholds
-10687- type_latticepoint_update: Could not generate lattice points
-10686- xtb_calculator_singlepoint: Electronic structure method terminated
-10685- scf: Setup of Coulomb evaluator failed
-10684- type_coulomb_setupBoundaryConditions: Could not setup numerical thresholds
-10683- type_latticepoint_update: Could not generate lattice points
-10682- xtb_calculator_singlepoint: Electronic structure method terminated
-10681- scf: Setup of Coulomb evaluator failed
-10680- type_coulomb_setupBoundaryConditions: Could not setup numerical thresholds
-10679- type_latticepoint_update: Could not generate lattice points
-10678- xtb_calculator_singlepoint: Electronic structure method terminated
-10677- scf: Setup of Coulomb evaluator failed
-10676- type_coulomb_setupBoundaryConditions: Could not setup numerical thresholds
-10675- type_latticepoint_update: Could not generate lattice points
-10674- xtb_calculator_singlepoint: Electronic structure method terminated
-10673- scf: Setup of Coulomb evaluator failed
-10672- type_coulomb_setupBoundaryConditions: Could not setup numerical thresholds
-10671- type_latticepoint_update: Could not generate lattice points
-10670- xtb_calculator_singlepoint: Electronic structure method terminated
-10669- scf: Setup of Coulomb evaluator failed
-10668- type_coulomb_setupBoundaryConditions: Could not setup numerical thresholds
-10667- type_latticepoint_update: Could not generate lattice points
-10666- xtb_calculator_singlepoint: Electronic structure method terminated
-10665- scf: Setup of Coulomb evaluator failed
-10664- type_coulomb_setupBoundaryConditions: Could not setup numerical thresholds
-10663- type_latticepoint_update: Could not generate lattice points
-10662- xtb_calculator_singlepoint: Electronic structure method terminated
-10661- scf: Setup of Coulomb evaluator failed
-10660- type_coulomb_setupBoundaryConditions: Could not setup numerical thresholds
-10659- type_latticepoint_update: Could not generate lattice points
-10658- xtb_calculator_singlepoint: Electronic structure method terminated
-10657- scf: Setup of Coulomb evaluator failed
-10656- type_coulomb_setupBoundaryConditions: Could not setup numerical thresholds
-10655- type_latticepoint_update: Could not generate lattice points
-10654- xtb_calculator_singlepoint: Electronic structure method terminated
-10653- scf: Setup of Coulomb evaluator failed
-10652- type_coulomb_setupBoundaryConditions: Could not setup numerical thresholds
-10651- type_latticepoint_update: Could not generate lattice points
-10650- xtb_calculator_singlepoint: Electronic structure method terminated
-10649- scf: Setup of Coulomb evaluator failed
-10648- type_coulomb_setupBoundaryConditions: Could not setup numerical thresholds
-10647- type_latticepoint_update: Could not generate lattice points
-10646- xtb_calculator_singlepoint: Electronic structure method terminated
-10645- scf: Setup of Coulomb evaluator failed
-10644- type_coulomb_setupBoundaryConditions: Could not setup numerical thresholds
-10643- type_latticepoint_update: Could not generate lattice points
-10642- xtb_calculator_singlepoint: Electronic structure method terminated
-10641- scf: Setup of Coulomb evaluator failed
-10640- type_coulomb_setupBoundaryConditions: Could not setup numerical thresholds
-10639- type_latticepoint_update: Could not generate lattice points
-10638- xtb_calculator_singlepoint: Electronic structure method terminated
-10637- scf: Setup of Coulomb evaluator failed
-10636- type_coulomb_setupBoundaryConditions: Could not setup numerical thresholds
-10635- type_latticepoint_update: Could not generate lattice points
-10634- xtb_calculator_singlepoint: Electronic structure method terminated
-10633- scf: Setup of Coulomb evaluator failed
-10632- type_coulomb_setupBoundaryConditions: Could not setup numerical thresholds
-10631- type_latticepoint_update: Could not generate lattice points
-10630- xtb_calculator_singlepoint: Electronic structure method terminated
-10629- scf: Setup of Coulomb evaluator failed
-10628- type_coulomb_setupBoundaryConditions: Could not setup numerical thresholds
-10627- type_latticepoint_update: Could not generate lattice points
-10626- xtb_calculator_singlepoint: Electronic structure method terminated
-10625- scf: Setup of Coulomb evaluator failed
-10624- type_coulomb_setupBoundaryConditions: Could not setup numerical thresholds
-10623- type_latticepoint_update: Could not generate lattice points
-10622- xtb_calculator_singlepoint: Electronic structure method terminated
-10621- scf: Setup of Coulomb evaluator failed
-10620- type_coulomb_setupBoundaryConditions: Could not setup numerical thresholds
-10619- type_latticepoint_update: Could not generate lattice points
-10618- xtb_calculator_singlepoint: Electronic structure method terminated
-10617- scf: Setup of Coulomb evaluator failed
-10616- type_coulomb_setupBoundaryConditions: Could not setup numerical thresholds
-10615- type_latticepoint_update: Could not generate lattice points
-10614- xtb_calculator_singlepoint: Electronic structure method terminated
-10613- scf: Setup of Coulomb evaluator failed
-10612- type_coulomb_setupBoundaryConditions: Could not setup numerical thresholds
-10611- type_latticepoint_update: Could not generate lattice points
-10610- xtb_calculator_singlepoint: Electronic structure method terminated
-10609- scf: Setup of Coulomb evaluator failed
-10608- type_coulomb_setupBoundaryConditions: Could not setup numerical thresholds
-10607- type_latticepoint_update: Could not generate lattice points
-10606- xtb_calculator_singlepoint: Electronic structure method terminated
-10605- scf: Setup of Coulomb evaluator failed
-10604- type_coulomb_setupBoundaryConditions: Could not setup numerical thresholds
-10603- type_latticepoint_update: Could not generate lattice points
-10602- xtb_calculator_singlepoint: Electronic structure method terminated
-10601- scf: Setup of Coulomb evaluator failed
-10600- type_coulomb_setupBoundaryConditions: Could not setup numerical thresholds
-10599- type_latticepoint_update: Could not generate lattice points
-10598- xtb_calculator_singlepoint: Electronic structure method terminated
-10597- scf: Setup of Coulomb evaluator failed
-10596- type_coulomb_setupBoundaryConditions: Could not setup numerical thresholds
-10595- type_latticepoint_update: Could not generate lattice points
-10594- xtb_calculator_singlepoint: Electronic structure method terminated
-10593- scf: Setup of Coulomb evaluator failed
-10592- type_coulomb_setupBoundaryConditions: Could not setup numerical thresholds
-10591- type_latticepoint_update: Could not generate lattice points
-10590- xtb_calculator_singlepoint: Electronic structure method terminated
-10589- scf: Setup of Coulomb evaluator failed
-10588- type_coulomb_setupBoundaryConditions: Could not setup numerical thresholds
-10587- type_latticepoint_update: Could not generate lattice points
-10586- xtb_calculator_singlepoint: Electronic structure method terminated
-10585- scf: Setup of Coulomb evaluator failed
-10584- type_coulomb_setupBoundaryConditions: Could not setup numerical thresholds
-10583- type_latticepoint_update: Could not generate lattice points
-10582- xtb_calculator_singlepoint: Electronic structure method terminated
-10581- scf: Setup of Coulomb evaluator failed
-10580- type_coulomb_setupBoundaryConditions: Could not setup numerical thresholds
-10579- type_latticepoint_update: Could not generate lattice points
-10578- xtb_calculator_singlepoint: Electronic structure method terminated
-10577- scf: Setup of Coulomb evaluator failed
-10576- type_coulomb_setupBoundaryConditions: Could not setup numerical thresholds
-10575- type_latticepoint_update: Could not generate lattice points
-10574- xtb_calculator_singlepoint: Electronic structure method terminated
-10573- scf: Setup of Coulomb evaluator failed
-10572- type_coulomb_setupBoundaryConditions: Could not setup numerical thresholds
-10571- type_latticepoint_update: Could not generate lattice points
-10570- xtb_calculator_singlepoint: Electronic structure method terminated
-10569- scf: Setup of Coulomb evaluator failed
-10568- type_coulomb_setupBoundaryConditions: Could not setup numerical thresholds
-10567- type_latticepoint_update: Could not generate lattice points
-10566- xtb_calculator_singlepoint: Electronic structure method terminated
-10565- scf: Setup of Coulomb evaluator failed
-10564- type_coulomb_setupBoundaryConditions: Could not setup numerical thresholds
-10563- type_latticepoint_update: Could not generate lattice points
-10562- xtb_calculator_singlepoint: Electronic structure method terminated
-10561- scf: Setup of Coulomb evaluator failed
-10560- type_coulomb_setupBoundaryConditions: Could not setup numerical thresholds
-10559- type_latticepoint_update: Could not generate lattice points
-10558- xtb_calculator_singlepoint: Electronic structure method terminated
-10557- scf: Setup of Coulomb evaluator failed
-10556- type_coulomb_setupBoundaryConditions: Could not setup numerical thresholds
-10555- type_latticepoint_update: Could not generate lattice points
-10554- xtb_calculator_singlepoint: Electronic structure method terminated
-10553- scf: Setup of Coulomb evaluator failed
-10552- type_coulomb_setupBoundaryConditions: Could not setup numerical thresholds
-10551- type_latticepoint_update: Could not generate lattice points
-10550- xtb_calculator_singlepoint: Electronic structure method terminated
-10549- scf: Setup of Coulomb evaluator failed
-10548- type_coulomb_setupBoundaryConditions: Could not setup numerical thresholds
-10547- type_latticepoint_update: Could not generate lattice points
-10546- xtb_calculator_singlepoint: Electronic structure method terminated
-10545- scf: Setup of Coulomb evaluator failed
-10544- type_coulomb_setupBoundaryConditions: Could not setup numerical thresholds
-10543- type_latticepoint_update: Could not generate lattice points
-10542- xtb_calculator_singlepoint: Electronic structure method terminated
-10541- scf: Setup of Coulomb evaluator failed
-10540- type_coulomb_setupBoundaryConditions: Could not setup numerical thresholds
-10539- type_latticepoint_update: Could not generate lattice points
-10538- xtb_calculator_singlepoint: Electronic structure method terminated
-10537- scf: Setup of Coulomb evaluator failed
-10536- type_coulomb_setupBoundaryConditions: Could not setup numerical thresholds
-10535- type_latticepoint_update: Could not generate lattice points
-10534- xtb_calculator_singlepoint: Electronic structure method terminated
-10533- scf: Setup of Coulomb evaluator failed
-10532- type_coulomb_setupBoundaryConditions: Could not setup numerical thresholds
-10531- type_latticepoint_update: Could not generate lattice points
-10530- xtb_calculator_singlepoint: Electronic structure method terminated
-10529- scf: Setup of Coulomb evaluator failed
-10528- type_coulomb_setupBoundaryConditions: Could not setup numerical thresholds
-10527- type_latticepoint_update: Could not generate lattice points
-10526- xtb_calculator_singlepoint: Electronic structure method terminated
-10525- scf: Setup of Coulomb evaluator failed
-10524- type_coulomb_setupBoundaryConditions: Could not setup numerical thresholds
-10523- type_latticepoint_update: Could not generate lattice points
-10522- xtb_calculator_singlepoint: Electronic structure method terminated
-10521- scf: Setup of Coulomb evaluator failed
-10520- type_coulomb_setupBoundaryConditions: Could not setup numerical thresholds
-10519- type_latticepoint_update: Could not generate lattice points
-10518- xtb_calculator_singlepoint: Electronic structure method terminated
-10517- scf: Setup of Coulomb evaluator failed
-10516- type_coulomb_setupBoundaryConditions: Could not setup numerical thresholds
-10515- type_latticepoint_update: Could not generate lattice points
-10514- xtb_calculator_singlepoint: Electronic structure method terminated
-10513- scf: Setup of Coulomb evaluator failed
-10512- type_coulomb_setupBoundaryConditions: Could not setup numerical thresholds
-10511- type_latticepoint_update: Could not generate lattice points
-10510- xtb_calculator_singlepoint: Electronic structure method terminated
-10509- scf: Setup of Coulomb evaluator failed
-10508- type_coulomb_setupBoundaryConditions: Could not setup numerical thresholds
-10507- type_latticepoint_update: Could not generate lattice points
-10506- xtb_calculator_singlepoint: Electronic structure method terminated
-10505- scf: Setup of Coulomb evaluator failed
-10504- type_coulomb_setupBoundaryConditions: Could not setup numerical thresholds
-10503- type_latticepoint_update: Could not generate lattice points
-10502- xtb_calculator_singlepoint: Electronic structure method terminated
-10501- scf: Setup of Coulomb evaluator failed
-10500- type_coulomb_setupBoundaryConditions: Could not setup numerical thresholds
-10499- type_latticepoint_update: Could not generate lattice points
-10498- xtb_calculator_singlepoint: Electronic structure method terminated
-10497- scf: Setup of Coulomb evaluator failed
-10496- type_coulomb_setupBoundaryConditions: Could not setup numerical thresholds
-10495- type_latticepoint_update: Could not generate lattice points
-10494- xtb_calculator_singlepoint: Electronic structure method terminated
-10493- scf: Setup of Coulomb evaluator failed
-10492- type_coulomb_setupBoundaryConditions: Could not setup numerical thresholds
-10491- type_latticepoint_update: Could not generate lattice points
-10490- xtb_calculator_singlepoint: Electronic structure method terminated
-10489- scf: Setup of Coulomb evaluator failed
-10488- type_coulomb_setupBoundaryConditions: Could not setup numerical thresholds
-10487- type_latticepoint_update: Could not generate lattice points
-10486- xtb_calculator_singlepoint: Electronic structure method terminated
-10485- scf: Setup of Coulomb evaluator failed
-10484- type_coulomb_setupBoundaryConditions: Could not setup numerical thresholds
-10483- type_latticepoint_update: Could not generate lattice points
-10482- xtb_calculator_singlepoint: Electronic structure method terminated
-10481- scf: Setup of Coulomb evaluator failed
-10480- type_coulomb_setupBoundaryConditions: Could not setup numerical thresholds
-10479- type_latticepoint_update: Could not generate lattice points
-10478- xtb_calculator_singlepoint: Electronic structure method terminated
-10477- scf: Setup of Coulomb evaluator failed
-10476- type_coulomb_setupBoundaryConditions: Could not setup numerical thresholds
-10475- type_latticepoint_update: Could not generate lattice points
-10474- xtb_calculator_singlepoint: Electronic structure method terminated
-10473- scf: Setup of Coulomb evaluator failed
-10472- type_coulomb_setupBoundaryConditions: Could not setup numerical thresholds
-10471- type_latticepoint_update: Could not generate lattice points
-10470- xtb_calculator_singlepoint: Electronic structure method terminated
-10469- scf: Setup of Coulomb evaluator failed
-10468- type_coulomb_setupBoundaryConditions: Could not setup numerical thresholds
-10467- type_latticepoint_update: Could not generate lattice points
-10466- xtb_calculator_singlepoint: Electronic structure method terminated
-10465- scf: Setup of Coulomb evaluator failed
-10464- type_coulomb_setupBoundaryConditions: Could not setup numerical thresholds
-10463- type_latticepoint_update: Could not generate lattice points
-10462- xtb_calculator_singlepoint: Electronic structure method terminated
-10461- scf: Setup of Coulomb evaluator failed
-10460- type_coulomb_setupBoundaryConditions: Could not setup numerical thresholds
-10459- type_latticepoint_update: Could not generate lattice points
-10458- xtb_calculator_singlepoint: Electronic structure method terminated
-10457- scf: Setup of Coulomb evaluator failed
-10456- type_coulomb_setupBoundaryConditions: Could not setup numerical thresholds
-10455- type_latticepoint_update: Could not generate lattice points
-10454- xtb_calculator_singlepoint: Electronic structure method terminated
-10453- scf: Setup of Coulomb evaluator failed
-10452- type_coulomb_setupBoundaryConditions: Could not setup numerical thresholds
-10451- type_latticepoint_update: Could not generate lattice points
-10450- xtb_calculator_singlepoint: Electronic structure method terminated
-10449- scf: Setup of Coulomb evaluator failed
-10448- type_coulomb_setupBoundaryConditions: Could not setup numerical thresholds
-10447- type_latticepoint_update: Could not generate lattice points
-10446- xtb_calculator_singlepoint: Electronic structure method terminated
-10445- scf: Setup of Coulomb evaluator failed
-10444- type_coulomb_setupBoundaryConditions: Could not setup numerical thresholds
-10443- type_latticepoint_update: Could not generate lattice points
-10442- xtb_calculator_singlepoint: Electronic structure method terminated
-10441- scf: Setup of Coulomb evaluator failed
-10440- type_coulomb_setupBoundaryConditions: Could not setup numerical thresholds
-10439- type_latticepoint_update: Could not generate lattice points
-10438- xtb_calculator_singlepoint: Electronic structure method terminated
-10437- scf: Setup of Coulomb evaluator failed
-10436- type_coulomb_setupBoundaryConditions: Could not setup numerical thresholds
-10435- type_latticepoint_update: Could not generate lattice points
-10434- xtb_calculator_singlepoint: Electronic structure method terminated
-10433- scf: Setup of Coulomb evaluator failed
-10432- type_coulomb_setupBoundaryConditions: Could not setup numerical thresholds
-10431- type_latticepoint_update: Could not generate lattice points
-10430- xtb_calculator_singlepoint: Electronic structure method terminated
-10429- scf: Setup of Coulomb evaluator failed
-10428- type_coulomb_setupBoundaryConditions: Could not setup numerical thresholds
-10427- type_latticepoint_update: Could not generate lattice points
-10426- xtb_calculator_singlepoint: Electronic structure method terminated
-10425- scf: Setup of Coulomb evaluator failed
-10424- type_coulomb_setupBoundaryConditions: Could not setup numerical thresholds
-10423- type_latticepoint_update: Could not generate lattice points
-10422- xtb_calculator_singlepoint: Electronic structure method terminated
-10421- scf: Setup of Coulomb evaluator failed
-10420- type_coulomb_setupBoundaryConditions: Could not setup numerical thresholds
-10419- type_latticepoint_update: Could not generate lattice points
-10418- xtb_calculator_singlepoint: Electronic structure method terminated
-10417- scf: Setup of Coulomb evaluator failed
-10416- type_coulomb_setupBoundaryConditions: Could not setup numerical thresholds
-10415- type_latticepoint_update: Could not generate lattice points
-10414- xtb_calculator_singlepoint: Electronic structure method terminated
-10413- scf: Setup of Coulomb evaluator failed
-10412- type_coulomb_setupBoundaryConditions: Could not setup numerical thresholds
-10411- type_latticepoint_update: Could not generate lattice points
-10410- xtb_calculator_singlepoint: Electronic structure method terminated
-10409- scf: Setup of Coulomb evaluator failed
-10408- type_coulomb_setupBoundaryConditions: Could not setup numerical thresholds
-10407- type_latticepoint_update: Could not generate lattice points
-10406- xtb_calculator_singlepoint: Electronic structure method terminated
-10405- scf: Setup of Coulomb evaluator failed
-10404- type_coulomb_setupBoundaryConditions: Could not setup numerical thresholds
-10403- type_latticepoint_update: Could not generate lattice points
-10402- xtb_calculator_singlepoint: Electronic structure method terminated
-10401- scf: Setup of Coulomb evaluator failed
-10400- type_coulomb_setupBoundaryConditions: Could not setup numerical thresholds
-10399- type_latticepoint_update: Could not generate lattice points
-10398- xtb_calculator_singlepoint: Electronic structure method terminated
-10397- scf: Setup of Coulomb evaluator failed
-10396- type_coulomb_setupBoundaryConditions: Could not setup numerical thresholds
-10395- type_latticepoint_update: Could not generate lattice points
-10394- xtb_calculator_singlepoint: Electronic structure method terminated
-10393- scf: Setup of Coulomb evaluator failed
-10392- type_coulomb_setupBoundaryConditions: Could not setup numerical thresholds
-10391- type_latticepoint_update: Could not generate lattice points
-10390- xtb_calculator_singlepoint: Electronic structure method terminated
-10389- scf: Setup of Coulomb evaluator failed
-10388- type_coulomb_setupBoundaryConditions: Could not setup numerical thresholds
-10387- type_latticepoint_update: Could not generate lattice points
-10386- xtb_calculator_singlepoint: Electronic structure method terminated
-10385- scf: Setup of Coulomb evaluator failed
-10384- type_coulomb_setupBoundaryConditions: Could not setup numerical thresholds
-10383- type_latticepoint_update: Could not generate lattice points
-10382- xtb_calculator_singlepoint: Electronic structure method terminated
-10381- scf: Setup of Coulomb evaluator failed
-10380- type_coulomb_setupBoundaryConditions: Could not setup numerical thresholds
-10379- type_latticepoint_update: Could not generate lattice points
-10378- xtb_calculator_singlepoint: Electronic structure method terminated
-10377- scf: Setup of Coulomb evaluator failed
-10376- type_coulomb_setupBoundaryConditions: Could not setup numerical thresholds
-10375- type_latticepoint_update: Could not generate lattice points
-10374- xtb_calculator_singlepoint: Electronic structure method terminated
-10373- scf: Setup of Coulomb evaluator failed
-10372- type_coulomb_setupBoundaryConditions: Could not setup numerical thresholds
-10371- type_latticepoint_update: Could not generate lattice points
-10370- xtb_calculator_singlepoint: Electronic structure method terminated
-10369- scf: Setup of Coulomb evaluator failed
-10368- type_coulomb_setupBoundaryConditions: Could not setup numerical thresholds
-10367- type_latticepoint_update: Could not generate lattice points
-10366- xtb_calculator_singlepoint: Electronic structure method terminated
-10365- scf: Setup of Coulomb evaluator failed
-10364- type_coulomb_setupBoundaryConditions: Could not setup numerical thresholds
-10363- type_latticepoint_update: Could not generate lattice points
-10362- xtb_calculator_singlepoint: Electronic structure method terminated
-10361- scf: Setup of Coulomb evaluator failed
-10360- type_coulomb_setupBoundaryConditions: Could not setup numerical thresholds
-10359- type_latticepoint_update: Could not generate lattice points
-10358- xtb_calculator_singlepoint: Electronic structure method terminated
-10357- scf: Setup of Coulomb evaluator failed
-10356- type_coulomb_setupBoundaryConditions: Could not setup numerical thresholds
-10355- type_latticepoint_update: Could not generate lattice points
-10354- xtb_calculator_singlepoint: Electronic structure method terminated
-10353- scf: Setup of Coulomb evaluator failed
-10352- type_coulomb_setupBoundaryConditions: Could not setup numerical thresholds
-10351- type_latticepoint_update: Could not generate lattice points
-10350- xtb_calculator_singlepoint: Electronic structure method terminated
-10349- scf: Setup of Coulomb evaluator failed
-10348- type_coulomb_setupBoundaryConditions: Could not setup numerical thresholds
-10347- type_latticepoint_update: Could not generate lattice points
-10346- xtb_calculator_singlepoint: Electronic structure method terminated
-10345- scf: Setup of Coulomb evaluator failed
-10344- type_coulomb_setupBoundaryConditions: Could not setup numerical thresholds
-10343- type_latticepoint_update: Could not generate lattice points
-10342- xtb_calculator_singlepoint: Electronic structure method terminated
-10341- scf: Setup of Coulomb evaluator failed
-10340- type_coulomb_setupBoundaryConditions: Could not setup numerical thresholds
-10339- type_latticepoint_update: Could not generate lattice points
-10338- xtb_calculator_singlepoint: Electronic structure method terminated
-10337- scf: Setup of Coulomb evaluator failed
-10336- type_coulomb_setupBoundaryConditions: Could not setup numerical thresholds
-10335- type_latticepoint_update: Could not generate lattice points
-10334- xtb_calculator_singlepoint: Electronic structure method terminated
-10333- scf: Setup of Coulomb evaluator failed
-10332- type_coulomb_setupBoundaryConditions: Could not setup numerical thresholds
-10331- type_latticepoint_update: Could not generate lattice points
-10330- xtb_calculator_singlepoint: Electronic structure method terminated
-10329- scf: Setup of Coulomb evaluator failed
-10328- type_coulomb_setupBoundaryConditions: Could not setup numerical thresholds
-10327- type_latticepoint_update: Could not generate lattice points
-10326- xtb_calculator_singlepoint: Electronic structure method terminated
-10325- scf: Setup of Coulomb evaluator failed
-10324- type_coulomb_setupBoundaryConditions: Could not setup numerical thresholds
-10323- type_latticepoint_update: Could not generate lattice points
-10322- xtb_calculator_singlepoint: Electronic structure method terminated
-10321- scf: Setup of Coulomb evaluator failed
-10320- type_coulomb_setupBoundaryConditions: Could not setup numerical thresholds
-10319- type_latticepoint_update: Could not generate lattice points
-10318- xtb_calculator_singlepoint: Electronic structure method terminated
-10317- scf: Setup of Coulomb evaluator failed
-10316- type_coulomb_setupBoundaryConditions: Could not setup numerical thresholds
-10315- type_latticepoint_update: Could not generate lattice points
-10314- xtb_calculator_singlepoint: Electronic structure method terminated
-10313- scf: Setup of Coulomb evaluator failed
-10312- type_coulomb_setupBoundaryConditions: Could not setup numerical thresholds
-10311- type_latticepoint_update: Could not generate lattice points
-10310- xtb_calculator_singlepoint: Electronic structure method terminated
-10309- scf: Setup of Coulomb evaluator failed
-10308- type_coulomb_setupBoundaryConditions: Could not setup numerical thresholds
-10307- type_latticepoint_update: Could not generate lattice points
-10306- xtb_calculator_singlepoint: Electronic structure method terminated
-10305- scf: Setup of Coulomb evaluator failed
-10304- type_coulomb_setupBoundaryConditions: Could not setup numerical thresholds
-10303- type_latticepoint_update: Could not generate lattice points
-10302- xtb_calculator_singlepoint: Electronic structure method terminated
-10301- scf: Setup of Coulomb evaluator failed
-10300- type_coulomb_setupBoundaryConditions: Could not setup numerical thresholds
-10299- type_latticepoint_update: Could not generate lattice points
-10298- xtb_calculator_singlepoint: Electronic structure method terminated
-10297- scf: Setup of Coulomb evaluator failed
-10296- type_coulomb_setupBoundaryConditions: Could not setup numerical thresholds
-10295- type_latticepoint_update: Could not generate lattice points
-10294- xtb_calculator_singlepoint: Electronic structure method terminated
-10293- scf: Setup of Coulomb evaluator failed
-10292- type_coulomb_setupBoundaryConditions: Could not setup numerical thresholds
-10291- type_latticepoint_update: Could not generate lattice points
-10290- xtb_calculator_singlepoint: Electronic structure method terminated
-10289- scf: Setup of Coulomb evaluator failed
-10288- type_coulomb_setupBoundaryConditions: Could not setup numerical thresholds
-10287- type_latticepoint_update: Could not generate lattice points
-10286- xtb_calculator_singlepoint: Electronic structure method terminated
-10285- scf: Setup of Coulomb evaluator failed
-10284- type_coulomb_setupBoundaryConditions: Could not setup numerical thresholds
-10283- type_latticepoint_update: Could not generate lattice points
-10282- xtb_calculator_singlepoint: Electronic structure method terminated
-10281- scf: Setup of Coulomb evaluator failed
-10280- type_coulomb_setupBoundaryConditions: Could not setup numerical thresholds
-10279- type_latticepoint_update: Could not generate lattice points
-10278- xtb_calculator_singlepoint: Electronic structure method terminated
-10277- scf: Setup of Coulomb evaluator failed
-10276- type_coulomb_setupBoundaryConditions: Could not setup numerical thresholds
-10275- type_latticepoint_update: Could not generate lattice points
-10274- xtb_calculator_singlepoint: Electronic structure method terminated
-10273- scf: Setup of Coulomb evaluator failed
-10272- type_coulomb_setupBoundaryConditions: Could not setup numerical thresholds
-10271- type_latticepoint_update: Could not generate lattice points
-10270- xtb_calculator_singlepoint: Electronic structure method terminated
-10269- scf: Setup of Coulomb evaluator failed
-10268- type_coulomb_setupBoundaryConditions: Could not setup numerical thresholds
-10267- type_latticepoint_update: Could not generate lattice points
-10266- xtb_calculator_singlepoint: Electronic structure method terminated
-10265- scf: Setup of Coulomb evaluator failed
-10264- type_coulomb_setupBoundaryConditions: Could not setup numerical thresholds
-10263- type_latticepoint_update: Could not generate lattice points
-10262- xtb_calculator_singlepoint: Electronic structure method terminated
-10261- scf: Setup of Coulomb evaluator failed
-10260- type_coulomb_setupBoundaryConditions: Could not setup numerical thresholds
-10259- type_latticepoint_update: Could not generate lattice points
-10258- xtb_calculator_singlepoint: Electronic structure method terminated
-10257- scf: Setup of Coulomb evaluator failed
-10256- type_coulomb_setupBoundaryConditions: Could not setup numerical thresholds
-10255- type_latticepoint_update: Could not generate lattice points
-10254- xtb_calculator_singlepoint: Electronic structure method terminated
-10253- scf: Setup of Coulomb evaluator failed
-10252- type_coulomb_setupBoundaryConditions: Could not setup numerical thresholds
-10251- type_latticepoint_update: Could not generate lattice points
-10250- xtb_calculator_singlepoint: Electronic structure method terminated
-10249- scf: Setup of Coulomb evaluator failed
-10248- type_coulomb_setupBoundaryConditions: Could not setup numerical thresholds
-10247- type_latticepoint_update: Could not generate lattice points
-10246- xtb_calculator_singlepoint: Electronic structure method terminated
-10245- scf: Setup of Coulomb evaluator failed
-10244- type_coulomb_setupBoundaryConditions: Could not setup numerical thresholds
-10243- type_latticepoint_update: Could not generate lattice points
-10242- xtb_calculator_singlepoint: Electronic structure method terminated
-10241- scf: Setup of Coulomb evaluator failed
-10240- type_coulomb_setupBoundaryConditions: Could not setup numerical thresholds
-10239- type_latticepoint_update: Could not generate lattice points
-10238- xtb_calculator_singlepoint: Electronic structure method terminated
-10237- scf: Setup of Coulomb evaluator failed
-10236- type_coulomb_setupBoundaryConditions: Could not setup numerical thresholds
-10235- type_latticepoint_update: Could not generate lattice points
-10234- xtb_calculator_singlepoint: Electronic structure method terminated
-10233- scf: Setup of Coulomb evaluator failed
-10232- type_coulomb_setupBoundaryConditions: Could not setup numerical thresholds
-10231- type_latticepoint_update: Could not generate lattice points
-10230- xtb_calculator_singlepoint: Electronic structure method terminated
-10229- scf: Setup of Coulomb evaluator failed
-10228- type_coulomb_setupBoundaryConditions: Could not setup numerical thresholds
-10227- type_latticepoint_update: Could not generate lattice points
-10226- xtb_calculator_singlepoint: Electronic structure method terminated
-10225- scf: Setup of Coulomb evaluator failed
-10224- type_coulomb_setupBoundaryConditions: Could not setup numerical thresholds
-10223- type_latticepoint_update: Could not generate lattice points
-10222- xtb_calculator_singlepoint: Electronic structure method terminated
-10221- scf: Setup of Coulomb evaluator failed
-10220- type_coulomb_setupBoundaryConditions: Could not setup numerical thresholds
-10219- type_latticepoint_update: Could not generate lattice points
-10218- xtb_calculator_singlepoint: Electronic structure method terminated
-10217- scf: Setup of Coulomb evaluator failed
-10216- type_coulomb_setupBoundaryConditions: Could not setup numerical thresholds
-10215- type_latticepoint_update: Could not generate lattice points
-10214- xtb_calculator_singlepoint: Electronic structure method terminated
-10213- scf: Setup of Coulomb evaluator failed
-10212- type_coulomb_setupBoundaryConditions: Could not setup numerical thresholds
-10211- type_latticepoint_update: Could not generate lattice points
-10210- xtb_calculator_singlepoint: Electronic structure method terminated
-10209- scf: Setup of Coulomb evaluator failed
-10208- type_coulomb_setupBoundaryConditions: Could not setup numerical thresholds
-10207- type_latticepoint_update: Could not generate lattice points
-10206- xtb_calculator_singlepoint: Electronic structure method terminated
-10205- scf: Setup of Coulomb evaluator failed
-10204- type_coulomb_setupBoundaryConditions: Could not setup numerical thresholds
-10203- type_latticepoint_update: Could not generate lattice points
-10202- xtb_calculator_singlepoint: Electronic structure method terminated
-10201- scf: Setup of Coulomb evaluator failed
-10200- type_coulomb_setupBoundaryConditions: Could not setup numerical thresholds
-10199- type_latticepoint_update: Could not generate lattice points
-10198- xtb_calculator_singlepoint: Electronic structure method terminated
-10197- scf: Setup of Coulomb evaluator failed
-10196- type_coulomb_setupBoundaryConditions: Could not setup numerical thresholds
-10195- type_latticepoint_update: Could not generate lattice points
-10194- xtb_calculator_singlepoint: Electronic structure method terminated
-10193- scf: Setup of Coulomb evaluator failed
-10192- type_coulomb_setupBoundaryConditions: Could not setup numerical thresholds
-10191- type_latticepoint_update: Could not generate lattice points
-10190- xtb_calculator_singlepoint: Electronic structure method terminated
-10189- scf: Setup of Coulomb evaluator failed
-10188- type_coulomb_setupBoundaryConditions: Could not setup numerical thresholds
-10187- type_latticepoint_update: Could not generate lattice points
-10186- xtb_calculator_singlepoint: Electronic structure method terminated
-10185- scf: Setup of Coulomb evaluator failed
-10184- type_coulomb_setupBoundaryConditions: Could not setup numerical thresholds
-10183- type_latticepoint_update: Could not generate lattice points
-10182- xtb_calculator_singlepoint: Electronic structure method terminated
-10181- scf: Setup of Coulomb evaluator failed
-10180- type_coulomb_setupBoundaryConditions: Could not setup numerical thresholds
-10179- type_latticepoint_update: Could not generate lattice points
-10178- xtb_calculator_singlepoint: Electronic structure method terminated
-10177- scf: Setup of Coulomb evaluator failed
-10176- type_coulomb_setupBoundaryConditions: Could not setup numerical thresholds
-10175- type_latticepoint_update: Could not generate lattice points
-10174- xtb_calculator_singlepoint: Electronic structure method terminated
-10173- scf: Setup of Coulomb evaluator failed
-10172- type_coulomb_setupBoundaryConditions: Could not setup numerical thresholds
-10171- type_latticepoint_update: Could not generate lattice points
-10170- xtb_calculator_singlepoint: Electronic structure method terminated
-10169- scf: Setup of Coulomb evaluator failed
-10168- type_coulomb_setupBoundaryConditions: Could not setup numerical thresholds
-10167- type_latticepoint_update: Could not generate lattice points
-10166- xtb_calculator_singlepoint: Electronic structure method terminated
-10165- scf: Setup of Coulomb evaluator failed
-10164- type_coulomb_setupBoundaryConditions: Could not setup numerical thresholds
-10163- type_latticepoint_update: Could not generate lattice points
-10162- xtb_calculator_singlepoint: Electronic structure method terminated
-10161- scf: Setup of Coulomb evaluator failed
-10160- type_coulomb_setupBoundaryConditions: Could not setup numerical thresholds
-10159- type_latticepoint_update: Could not generate lattice points
-10158- xtb_calculator_singlepoint: Electronic structure method terminated
-10157- scf: Setup of Coulomb evaluator failed
-10156- type_coulomb_setupBoundaryConditions: Could not setup numerical thresholds
-10155- type_latticepoint_update: Could not generate lattice points
-10154- xtb_calculator_singlepoint: Electronic structure method terminated
-10153- scf: Setup of Coulomb evaluator failed
-10152- type_coulomb_setupBoundaryConditions: Could not setup numerical thresholds
-10151- type_latticepoint_update: Could not generate lattice points
-10150- xtb_calculator_singlepoint: Electronic structure method terminated
-10149- scf: Setup of Coulomb evaluator failed
-10148- type_coulomb_setupBoundaryConditions: Could not setup numerical thresholds
-10147- type_latticepoint_update: Could not generate lattice points
-10146- xtb_calculator_singlepoint: Electronic structure method terminated
-10145- scf: Setup of Coulomb evaluator failed
-10144- type_coulomb_setupBoundaryConditions: Could not setup numerical thresholds
-10143- type_latticepoint_update: Could not generate lattice points
-10142- xtb_calculator_singlepoint: Electronic structure method terminated
-10141- scf: Setup of Coulomb evaluator failed
-10140- type_coulomb_setupBoundaryConditions: Could not setup numerical thresholds
-10139- type_latticepoint_update: Could not generate lattice points
-10138- xtb_calculator_singlepoint: Electronic structure method terminated
-10137- scf: Setup of Coulomb evaluator failed
-10136- type_coulomb_setupBoundaryConditions: Could not setup numerical thresholds
-10135- type_latticepoint_update: Could not generate lattice points
-10134- xtb_calculator_singlepoint: Electronic structure method terminated
-10133- scf: Setup of Coulomb evaluator failed
-10132- type_coulomb_setupBoundaryConditions: Could not setup numerical thresholds
-10131- type_latticepoint_update: Could not generate lattice points
-10130- xtb_calculator_singlepoint: Electronic structure method terminated
-10129- scf: Setup of Coulomb evaluator failed
-10128- type_coulomb_setupBoundaryConditions: Could not setup numerical thresholds
-10127- type_latticepoint_update: Could not generate lattice points
-10126- xtb_calculator_singlepoint: Electronic structure method terminated
-10125- scf: Setup of Coulomb evaluator failed
-10124- type_coulomb_setupBoundaryConditions: Could not setup numerical thresholds
-10123- type_latticepoint_update: Could not generate lattice points
-10122- xtb_calculator_singlepoint: Electronic structure method terminated
-10121- scf: Setup of Coulomb evaluator failed
-10120- type_coulomb_setupBoundaryConditions: Could not setup numerical thresholds
-10119- type_latticepoint_update: Could not generate lattice points
-10118- xtb_calculator_singlepoint: Electronic structure method terminated
-10117- scf: Setup of Coulomb evaluator failed
-10116- type_coulomb_setupBoundaryConditions: Could not setup numerical thresholds
-10115- type_latticepoint_update: Could not generate lattice points
-10114- xtb_calculator_singlepoint: Electronic structure method terminated
-10113- scf: Setup of Coulomb evaluator failed
-10112- type_coulomb_setupBoundaryConditions: Could not setup numerical thresholds
-10111- type_latticepoint_update: Could not generate lattice points
-10110- xtb_calculator_singlepoint: Electronic structure method terminated
-10109- scf: Setup of Coulomb evaluator failed
-10108- type_coulomb_setupBoundaryConditions: Could not setup numerical thresholds
-10107- type_latticepoint_update: Could not generate lattice points
-10106- xtb_calculator_singlepoint: Electronic structure method terminated
-10105- scf: Setup of Coulomb evaluator failed
-10104- type_coulomb_setupBoundaryConditions: Could not setup numerical thresholds
-10103- type_latticepoint_update: Could not generate lattice points
-10102- xtb_calculator_singlepoint: Electronic structure method terminated
-10101- scf: Setup of Coulomb evaluator failed
-10100- type_coulomb_setupBoundaryConditions: Could not setup numerical thresholds
-10099- type_latticepoint_update: Could not generate lattice points
-10098- xtb_calculator_singlepoint: Electronic structure method terminated
-10097- scf: Setup of Coulomb evaluator failed
-10096- type_coulomb_setupBoundaryConditions: Could not setup numerical thresholds
-10095- type_latticepoint_update: Could not generate lattice points
-10094- xtb_calculator_singlepoint: Electronic structure method terminated
-10093- scf: Setup of Coulomb evaluator failed
-10092- type_coulomb_setupBoundaryConditions: Could not setup numerical thresholds
-10091- type_latticepoint_update: Could not generate lattice points
-10090- xtb_calculator_singlepoint: Electronic structure method terminated
-10089- scf: Setup of Coulomb evaluator failed
-10088- type_coulomb_setupBoundaryConditions: Could not setup numerical thresholds
-10087- type_latticepoint_update: Could not generate lattice points
-10086- xtb_calculator_singlepoint: Electronic structure method terminated
-10085- scf: Setup of Coulomb evaluator failed
-10084- type_coulomb_setupBoundaryConditions: Could not setup numerical thresholds
-10083- type_latticepoint_update: Could not generate lattice points
-10082- xtb_calculator_singlepoint: Electronic structure method terminated
-10081- scf: Setup of Coulomb evaluator failed
-10080- type_coulomb_setupBoundaryConditions: Could not setup numerical thresholds
-10079- type_latticepoint_update: Could not generate lattice points
-10078- xtb_calculator_singlepoint: Electronic structure method terminated
-10077- scf: Setup of Coulomb evaluator failed
-10076- type_coulomb_setupBoundaryConditions: Could not setup numerical thresholds
-10075- type_latticepoint_update: Could not generate lattice points
-10074- xtb_calculator_singlepoint: Electronic structure method terminated
-10073- scf: Setup of Coulomb evaluator failed
-10072- type_coulomb_setupBoundaryConditions: Could not setup numerical thresholds
-10071- type_latticepoint_update: Could not generate lattice points
-10070- xtb_calculator_singlepoint: Electronic structure method terminated
-10069- scf: Setup of Coulomb evaluator failed
-10068- type_coulomb_setupBoundaryConditions: Could not setup numerical thresholds
-10067- type_latticepoint_update: Could not generate lattice points
-10066- xtb_calculator_singlepoint: Electronic structure method terminated
-10065- scf: Setup of Coulomb evaluator failed
-10064- type_coulomb_setupBoundaryConditions: Could not setup numerical thresholds
-10063- type_latticepoint_update: Could not generate lattice points
-10062- xtb_calculator_singlepoint: Electronic structure method terminated
-10061- scf: Setup of Coulomb evaluator failed
-10060- type_coulomb_setupBoundaryConditions: Could not setup numerical thresholds
-10059- type_latticepoint_update: Could not generate lattice points
-10058- xtb_calculator_singlepoint: Electronic structure method terminated
-10057- scf: Setup of Coulomb evaluator failed
-10056- type_coulomb_setupBoundaryConditions: Could not setup numerical thresholds
-10055- type_latticepoint_update: Could not generate lattice points
-10054- xtb_calculator_singlepoint: Electronic structure method terminated
-10053- scf: Setup of Coulomb evaluator failed
-10052- type_coulomb_setupBoundaryConditions: Could not setup numerical thresholds
-10051- type_latticepoint_update: Could not generate lattice points
-10050- xtb_calculator_singlepoint: Electronic structure method terminated
-10049- scf: Setup of Coulomb evaluator failed
-10048- type_coulomb_setupBoundaryConditions: Could not setup numerical thresholds
-10047- type_latticepoint_update: Could not generate lattice points
-10046- xtb_calculator_singlepoint: Electronic structure method terminated
-10045- scf: Setup of Coulomb evaluator failed
-10044- type_coulomb_setupBoundaryConditions: Could not setup numerical thresholds
-10043- type_latticepoint_update: Could not generate lattice points
-10042- xtb_calculator_singlepoint: Electronic structure method terminated
-10041- scf: Setup of Coulomb evaluator failed
-10040- type_coulomb_setupBoundaryConditions: Could not setup numerical thresholds
-10039- type_latticepoint_update: Could not generate lattice points
-10038- xtb_calculator_singlepoint: Electronic structure method terminated
-10037- scf: Setup of Coulomb evaluator failed
-10036- type_coulomb_setupBoundaryConditions: Could not setup numerical thresholds
-10035- type_latticepoint_update: Could not generate lattice points
-10034- xtb_calculator_singlepoint: Electronic structure method terminated
-10033- scf: Setup of Coulomb evaluator failed
-10032- type_coulomb_setupBoundaryConditions: Could not setup numerical thresholds
-10031- type_latticepoint_update: Could not generate lattice points
-10030- xtb_calculator_singlepoint: Electronic structure method terminated
-10029- scf: Setup of Coulomb evaluator failed
-10028- type_coulomb_setupBoundaryConditions: Could not setup numerical thresholds
-10027- type_latticepoint_update: Could not generate lattice points
-10026- xtb_calculator_singlepoint: Electronic structure method terminated
-10025- scf: Setup of Coulomb evaluator failed
-10024- type_coulomb_setupBoundaryConditions: Could not setup numerical thresholds
-10023- type_latticepoint_update: Could not generate lattice points
-10022- xtb_calculator_singlepoint: Electronic structure method terminated
-10021- scf: Setup of Coulomb evaluator failed
-10020- type_coulomb_setupBoundaryConditions: Could not setup numerical thresholds
-10019- type_latticepoint_update: Could not generate lattice points
-10018- xtb_calculator_singlepoint: Electronic structure method terminated
-10017- scf: Setup of Coulomb evaluator failed
-10016- type_coulomb_setupBoundaryConditions: Could not setup numerical thresholds
-10015- type_latticepoint_update: Could not generate lattice points
-10014- xtb_calculator_singlepoint: Electronic structure method terminated
-10013- scf: Setup of Coulomb evaluator failed
-10012- type_coulomb_setupBoundaryConditions: Could not setup numerical thresholds
-10011- type_latticepoint_update: Could not generate lattice points
-10010- xtb_calculator_singlepoint: Electronic structure method terminated
-10009- scf: Setup of Coulomb evaluator failed
-10008- type_coulomb_setupBoundaryConditions: Could not setup numerical thresholds
-10007- type_latticepoint_update: Could not generate lattice points
-10006- xtb_calculator_singlepoint: Electronic structure method terminated
-10005- scf: Setup of Coulomb evaluator failed
-10004- type_coulomb_setupBoundaryConditions: Could not setup numerical thresholds
-10003- type_latticepoint_update: Could not generate lattice points
-10002- xtb_calculator_singlepoint: Electronic structure method terminated
-10001- scf: Setup of Coulomb evaluator failed
-10000- type_coulomb_setupBoundaryConditions: Could not setup numerical thresholds
-9999- type_latticepoint_update: Could not generate lattice points
-9998- xtb_calculator_singlepoint: Electronic structure method terminated
-9997- scf: Setup of Coulomb evaluator failed
-9996- type_coulomb_setupBoundaryConditions: Could not setup numerical thresholds
-9995- type_latticepoint_update: Could not generate lattice points
-9994- xtb_calculator_singlepoint: Electronic structure method terminated
-9993- scf: Setup of Coulomb evaluator failed
-9992- type_coulomb_setupBoundaryConditions: Could not setup numerical thresholds
-9991- type_latticepoint_update: Could not generate lattice points
-9990- xtb_calculator_singlepoint: Electronic structure method terminated
-9989- scf: Setup of Coulomb evaluator failed
-9988- type_coulomb_setupBoundaryConditions: Could not setup numerical thresholds
-9987- type_latticepoint_update: Could not generate lattice points
-9986- xtb_calculator_singlepoint: Electronic structure method terminated
-9985- scf: Setup of Coulomb evaluator failed
-9984- type_coulomb_setupBoundaryConditions: Could not setup numerical thresholds
-9983- type_latticepoint_update: Could not generate lattice points
-9982- xtb_calculator_singlepoint: Electronic structure method terminated
-9981- scf: Setup of Coulomb evaluator failed
-9980- type_coulomb_setupBoundaryConditions: Could not setup numerical thresholds
-9979- type_latticepoint_update: Could not generate lattice points
-9978- xtb_calculator_singlepoint: Electronic structure method terminated
-9977- scf: Setup of Coulomb evaluator failed
-9976- type_coulomb_setupBoundaryConditions: Could not setup numerical thresholds
-9975- type_latticepoint_update: Could not generate lattice points
-9974- xtb_calculator_singlepoint: Electronic structure method terminated
-9973- scf: Setup of Coulomb evaluator failed
-9972- type_coulomb_setupBoundaryConditions: Could not setup numerical thresholds
-9971- type_latticepoint_update: Could not generate lattice points
-9970- xtb_calculator_singlepoint: Electronic structure method terminated
-9969- scf: Setup of Coulomb evaluator failed
-9968- type_coulomb_setupBoundaryConditions: Could not setup numerical thresholds
-9967- type_latticepoint_update: Could not generate lattice points
-9966- xtb_calculator_singlepoint: Electronic structure method terminated
-9965- scf: Setup of Coulomb evaluator failed
-9964- type_coulomb_setupBoundaryConditions: Could not setup numerical thresholds
-9963- type_latticepoint_update: Could not generate lattice points
-9962- xtb_calculator_singlepoint: Electronic structure method terminated
-9961- scf: Setup of Coulomb evaluator failed
-9960- type_coulomb_setupBoundaryConditions: Could not setup numerical thresholds
-9959- type_latticepoint_update: Could not generate lattice points
-9958- xtb_calculator_singlepoint: Electronic structure method terminated
-9957- scf: Setup of Coulomb evaluator failed
-9956- type_coulomb_setupBoundaryConditions: Could not setup numerical thresholds
-9955- type_latticepoint_update: Could not generate lattice points
-9954- xtb_calculator_singlepoint: Electronic structure method terminated
-9953- scf: Setup of Coulomb evaluator failed
-9952- type_coulomb_setupBoundaryConditions: Could not setup numerical thresholds
-9951- type_latticepoint_update: Could not generate lattice points
-9950- xtb_calculator_singlepoint: Electronic structure method terminated
-9949- scf: Setup of Coulomb evaluator failed
-9948- type_coulomb_setupBoundaryConditions: Could not setup numerical thresholds
-9947- type_latticepoint_update: Could not generate lattice points
-9946- xtb_calculator_singlepoint: Electronic structure method terminated
-9945- scf: Setup of Coulomb evaluator failed
-9944- type_coulomb_setupBoundaryConditions: Could not setup numerical thresholds
-9943- type_latticepoint_update: Could not generate lattice points
-9942- xtb_calculator_singlepoint: Electronic structure method terminated
-9941- scf: Setup of Coulomb evaluator failed
-9940- type_coulomb_setupBoundaryConditions: Could not setup numerical thresholds
-9939- type_latticepoint_update: Could not generate lattice points
-9938- xtb_calculator_singlepoint: Electronic structure method terminated
-9937- scf: Setup of Coulomb evaluator failed
-9936- type_coulomb_setupBoundaryConditions: Could not setup numerical thresholds
-9935- type_latticepoint_update: Could not generate lattice points
-9934- xtb_calculator_singlepoint: Electronic structure method terminated
-9933- scf: Setup of Coulomb evaluator failed
-9932- type_coulomb_setupBoundaryConditions: Could not setup numerical thresholds
-9931- type_latticepoint_update: Could not generate lattice points
-9930- xtb_calculator_singlepoint: Electronic structure method terminated
-9929- scf: Setup of Coulomb evaluator failed
-9928- type_coulomb_setupBoundaryConditions: Could not setup numerical thresholds
-9927- type_latticepoint_update: Could not generate lattice points
-9926- xtb_calculator_singlepoint: Electronic structure method terminated
-9925- scf: Setup of Coulomb evaluator failed
-9924- type_coulomb_setupBoundaryConditions: Could not setup numerical thresholds
-9923- type_latticepoint_update: Could not generate lattice points
-9922- xtb_calculator_singlepoint: Electronic structure method terminated
-9921- scf: Setup of Coulomb evaluator failed
-9920- type_coulomb_setupBoundaryConditions: Could not setup numerical thresholds
-9919- type_latticepoint_update: Could not generate lattice points
-9918- xtb_calculator_singlepoint: Electronic structure method terminated
-9917- scf: Setup of Coulomb evaluator failed
-9916- type_coulomb_setupBoundaryConditions: Could not setup numerical thresholds
-9915- type_latticepoint_update: Could not generate lattice points
-9914- xtb_calculator_singlepoint: Electronic structure method terminated
-9913- scf: Setup of Coulomb evaluator failed
-9912- type_coulomb_setupBoundaryConditions: Could not setup numerical thresholds
-9911- type_latticepoint_update: Could not generate lattice points
-9910- xtb_calculator_singlepoint: Electronic structure method terminated
-9909- scf: Setup of Coulomb evaluator failed
-9908- type_coulomb_setupBoundaryConditions: Could not setup numerical thresholds
-9907- type_latticepoint_update: Could not generate lattice points
-9906- xtb_calculator_singlepoint: Electronic structure method terminated
-9905- scf: Setup of Coulomb evaluator failed
-9904- type_coulomb_setupBoundaryConditions: Could not setup numerical thresholds
-9903- type_latticepoint_update: Could not generate lattice points
-9902- xtb_calculator_singlepoint: Electronic structure method terminated
-9901- scf: Setup of Coulomb evaluator failed
-9900- type_coulomb_setupBoundaryConditions: Could not setup numerical thresholds
-9899- type_latticepoint_update: Could not generate lattice points
-9898- xtb_calculator_singlepoint: Electronic structure method terminated
-9897- scf: Setup of Coulomb evaluator failed
-9896- type_coulomb_setupBoundaryConditions: Could not setup numerical thresholds
-9895- type_latticepoint_update: Could not generate lattice points
-9894- xtb_calculator_singlepoint: Electronic structure method terminated
-9893- scf: Setup of Coulomb evaluator failed
-9892- type_coulomb_setupBoundaryConditions: Could not setup numerical thresholds
-9891- type_latticepoint_update: Could not generate lattice points
-9890- xtb_calculator_singlepoint: Electronic structure method terminated
-9889- scf: Setup of Coulomb evaluator failed
-9888- type_coulomb_setupBoundaryConditions: Could not setup numerical thresholds
-9887- type_latticepoint_update: Could not generate lattice points
-9886- xtb_calculator_singlepoint: Electronic structure method terminated
-9885- scf: Setup of Coulomb evaluator failed
-9884- type_coulomb_setupBoundaryConditions: Could not setup numerical thresholds
-9883- type_latticepoint_update: Could not generate lattice points
-9882- xtb_calculator_singlepoint: Electronic structure method terminated
-9881- scf: Setup of Coulomb evaluator failed
-9880- type_coulomb_setupBoundaryConditions: Could not setup numerical thresholds
-9879- type_latticepoint_update: Could not generate lattice points
-9878- xtb_calculator_singlepoint: Electronic structure method terminated
-9877- scf: Setup of Coulomb evaluator failed
-9876- type_coulomb_setupBoundaryConditions: Could not setup numerical thresholds
-9875- type_latticepoint_update: Could not generate lattice points
-9874- xtb_calculator_singlepoint: Electronic structure method terminated
-9873- scf: Setup of Coulomb evaluator failed
-9872- type_coulomb_setupBoundaryConditions: Could not setup numerical thresholds
-9871- type_latticepoint_update: Could not generate lattice points
-9870- xtb_calculator_singlepoint: Electronic structure method terminated
-9869- scf: Setup of Coulomb evaluator failed
-9868- type_coulomb_setupBoundaryConditions: Could not setup numerical thresholds
-9867- type_latticepoint_update: Could not generate lattice points
-9866- xtb_calculator_singlepoint: Electronic structure method terminated
-9865- scf: Setup of Coulomb evaluator failed
-9864- type_coulomb_setupBoundaryConditions: Could not setup numerical thresholds
-9863- type_latticepoint_update: Could not generate lattice points
-9862- xtb_calculator_singlepoint: Electronic structure method terminated
-9861- scf: Setup of Coulomb evaluator failed
-9860- type_coulomb_setupBoundaryConditions: Could not setup numerical thresholds
-9859- type_latticepoint_update: Could not generate lattice points
-9858- xtb_calculator_singlepoint: Electronic structure method terminated
-9857- scf: Setup of Coulomb evaluator failed
-9856- type_coulomb_setupBoundaryConditions: Could not setup numerical thresholds
-9855- type_latticepoint_update: Could not generate lattice points
-9854- xtb_calculator_singlepoint: Electronic structure method terminated
-9853- scf: Setup of Coulomb evaluator failed
-9852- type_coulomb_setupBoundaryConditions: Could not setup numerical thresholds
-9851- type_latticepoint_update: Could not generate lattice points
-9850- xtb_calculator_singlepoint: Electronic structure method terminated
-9849- scf: Setup of Coulomb evaluator failed
-9848- type_coulomb_setupBoundaryConditions: Could not setup numerical thresholds
-9847- type_latticepoint_update: Could not generate lattice points
-9846- xtb_calculator_singlepoint: Electronic structure method terminated
-9845- scf: Setup of Coulomb evaluator failed
-9844- type_coulomb_setupBoundaryConditions: Could not setup numerical thresholds
-9843- type_latticepoint_update: Could not generate lattice points
-9842- xtb_calculator_singlepoint: Electronic structure method terminated
-9841- scf: Setup of Coulomb evaluator failed
-9840- type_coulomb_setupBoundaryConditions: Could not setup numerical thresholds
-9839- type_latticepoint_update: Could not generate lattice points
-9838- xtb_calculator_singlepoint: Electronic structure method terminated
-9837- scf: Setup of Coulomb evaluator failed
-9836- type_coulomb_setupBoundaryConditions: Could not setup numerical thresholds
-9835- type_latticepoint_update: Could not generate lattice points
-9834- xtb_calculator_singlepoint: Electronic structure method terminated
-9833- scf: Setup of Coulomb evaluator failed
-9832- type_coulomb_setupBoundaryConditions: Could not setup numerical thresholds
-9831- type_latticepoint_update: Could not generate lattice points
-9830- xtb_calculator_singlepoint: Electronic structure method terminated
-9829- scf: Setup of Coulomb evaluator failed
-9828- type_coulomb_setupBoundaryConditions: Could not setup numerical thresholds
-9827- type_latticepoint_update: Could not generate lattice points
-9826- xtb_calculator_singlepoint: Electronic structure method terminated
-9825- scf: Setup of Coulomb evaluator failed
-9824- type_coulomb_setupBoundaryConditions: Could not setup numerical thresholds
-9823- type_latticepoint_update: Could not generate lattice points
-9822- xtb_calculator_singlepoint: Electronic structure method terminated
-9821- scf: Setup of Coulomb evaluator failed
-9820- type_coulomb_setupBoundaryConditions: Could not setup numerical thresholds
-9819- type_latticepoint_update: Could not generate lattice points
-9818- xtb_calculator_singlepoint: Electronic structure method terminated
-9817- scf: Setup of Coulomb evaluator failed
-9816- type_coulomb_setupBoundaryConditions: Could not setup numerical thresholds
-9815- type_latticepoint_update: Could not generate lattice points
-9814- xtb_calculator_singlepoint: Electronic structure method terminated
-9813- scf: Setup of Coulomb evaluator failed
-9812- type_coulomb_setupBoundaryConditions: Could not setup numerical thresholds
-9811- type_latticepoint_update: Could not generate lattice points
-9810- xtb_calculator_singlepoint: Electronic structure method terminated
-9809- scf: Setup of Coulomb evaluator failed
-9808- type_coulomb_setupBoundaryConditions: Could not setup numerical thresholds
-9807- type_latticepoint_update: Could not generate lattice points
-9806- xtb_calculator_singlepoint: Electronic structure method terminated
-9805- scf: Setup of Coulomb evaluator failed
-9804- type_coulomb_setupBoundaryConditions: Could not setup numerical thresholds
-9803- type_latticepoint_update: Could not generate lattice points
-9802- xtb_calculator_singlepoint: Electronic structure method terminated
-9801- scf: Setup of Coulomb evaluator failed
-9800- type_coulomb_setupBoundaryConditions: Could not setup numerical thresholds
-9799- type_latticepoint_update: Could not generate lattice points
-9798- xtb_calculator_singlepoint: Electronic structure method terminated
-9797- scf: Setup of Coulomb evaluator failed
-9796- type_coulomb_setupBoundaryConditions: Could not setup numerical thresholds
-9795- type_latticepoint_update: Could not generate lattice points
-9794- xtb_calculator_singlepoint: Electronic structure method terminated
-9793- scf: Setup of Coulomb evaluator failed
-9792- type_coulomb_setupBoundaryConditions: Could not setup numerical thresholds
-9791- type_latticepoint_update: Could not generate lattice points
-9790- xtb_calculator_singlepoint: Electronic structure method terminated
-9789- scf: Setup of Coulomb evaluator failed
-9788- type_coulomb_setupBoundaryConditions: Could not setup numerical thresholds
-9787- type_latticepoint_update: Could not generate lattice points
-9786- xtb_calculator_singlepoint: Electronic structure method terminated
-9785- scf: Setup of Coulomb evaluator failed
-9784- type_coulomb_setupBoundaryConditions: Could not setup numerical thresholds
-9783- type_latticepoint_update: Could not generate lattice points
-9782- xtb_calculator_singlepoint: Electronic structure method terminated
-9781- scf: Setup of Coulomb evaluator failed
-9780- type_coulomb_setupBoundaryConditions: Could not setup numerical thresholds
-9779- type_latticepoint_update: Could not generate lattice points
-9778- xtb_calculator_singlepoint: Electronic structure method terminated
-9777- scf: Setup of Coulomb evaluator failed
-9776- type_coulomb_setupBoundaryConditions: Could not setup numerical thresholds
-9775- type_latticepoint_update: Could not generate lattice points
-9774- xtb_calculator_singlepoint: Electronic structure method terminated
-9773- scf: Setup of Coulomb evaluator failed
-9772- type_coulomb_setupBoundaryConditions: Could not setup numerical thresholds
-9771- type_latticepoint_update: Could not generate lattice points
-9770- xtb_calculator_singlepoint: Electronic structure method terminated
-9769- scf: Setup of Coulomb evaluator failed
-9768- type_coulomb_setupBoundaryConditions: Could not setup numerical thresholds
-9767- type_latticepoint_update: Could not generate lattice points
-9766- xtb_calculator_singlepoint: Electronic structure method terminated
-9765- scf: Setup of Coulomb evaluator failed
-9764- type_coulomb_setupBoundaryConditions: Could not setup numerical thresholds
-9763- type_latticepoint_update: Could not generate lattice points
-9762- xtb_calculator_singlepoint: Electronic structure method terminated
-9761- scf: Setup of Coulomb evaluator failed
-9760- type_coulomb_setupBoundaryConditions: Could not setup numerical thresholds
-9759- type_latticepoint_update: Could not generate lattice points
-9758- xtb_calculator_singlepoint: Electronic structure method terminated
-9757- scf: Setup of Coulomb evaluator failed
-9756- type_coulomb_setupBoundaryConditions: Could not setup numerical thresholds
-9755- type_latticepoint_update: Could not generate lattice points
-9754- xtb_calculator_singlepoint: Electronic structure method terminated
-9753- scf: Setup of Coulomb evaluator failed
-9752- type_coulomb_setupBoundaryConditions: Could not setup numerical thresholds
-9751- type_latticepoint_update: Could not generate lattice points
-9750- xtb_calculator_singlepoint: Electronic structure method terminated
-9749- scf: Setup of Coulomb evaluator failed
-9748- type_coulomb_setupBoundaryConditions: Could not setup numerical thresholds
-9747- type_latticepoint_update: Could not generate lattice points
-9746- xtb_calculator_singlepoint: Electronic structure method terminated
-9745- scf: Setup of Coulomb evaluator failed
-9744- type_coulomb_setupBoundaryConditions: Could not setup numerical thresholds
-9743- type_latticepoint_update: Could not generate lattice points
-9742- xtb_calculator_singlepoint: Electronic structure method terminated
-9741- scf: Setup of Coulomb evaluator failed
-9740- type_coulomb_setupBoundaryConditions: Could not setup numerical thresholds
-9739- type_latticepoint_update: Could not generate lattice points
-9738- xtb_calculator_singlepoint: Electronic structure method terminated
-9737- scf: Setup of Coulomb evaluator failed
-9736- type_coulomb_setupBoundaryConditions: Could not setup numerical thresholds
-9735- type_latticepoint_update: Could not generate lattice points
-9734- xtb_calculator_singlepoint: Electronic structure method terminated
-9733- scf: Setup of Coulomb evaluator failed
-9732- type_coulomb_setupBoundaryConditions: Could not setup numerical thresholds
-9731- type_latticepoint_update: Could not generate lattice points
-9730- xtb_calculator_singlepoint: Electronic structure method terminated
-9729- scf: Setup of Coulomb evaluator failed
-9728- type_coulomb_setupBoundaryConditions: Could not setup numerical thresholds
-9727- type_latticepoint_update: Could not generate lattice points
-9726- xtb_calculator_singlepoint: Electronic structure method terminated
-9725- scf: Setup of Coulomb evaluator failed
-9724- type_coulomb_setupBoundaryConditions: Could not setup numerical thresholds
-9723- type_latticepoint_update: Could not generate lattice points
-9722- xtb_calculator_singlepoint: Electronic structure method terminated
-9721- scf: Setup of Coulomb evaluator failed
-9720- type_coulomb_setupBoundaryConditions: Could not setup numerical thresholds
-9719- type_latticepoint_update: Could not generate lattice points
-9718- xtb_calculator_singlepoint: Electronic structure method terminated
-9717- scf: Setup of Coulomb evaluator failed
-9716- type_coulomb_setupBoundaryConditions: Could not setup numerical thresholds
-9715- type_latticepoint_update: Could not generate lattice points
-9714- xtb_calculator_singlepoint: Electronic structure method terminated
-9713- scf: Setup of Coulomb evaluator failed
-9712- type_coulomb_setupBoundaryConditions: Could not setup numerical thresholds
-9711- type_latticepoint_update: Could not generate lattice points
-9710- xtb_calculator_singlepoint: Electronic structure method terminated
-9709- scf: Setup of Coulomb evaluator failed
-9708- type_coulomb_setupBoundaryConditions: Could not setup numerical thresholds
-9707- type_latticepoint_update: Could not generate lattice points
-9706- xtb_calculator_singlepoint: Electronic structure method terminated
-9705- scf: Setup of Coulomb evaluator failed
-9704- type_coulomb_setupBoundaryConditions: Could not setup numerical thresholds
-9703- type_latticepoint_update: Could not generate lattice points
-9702- xtb_calculator_singlepoint: Electronic structure method terminated
-9701- scf: Setup of Coulomb evaluator failed
-9700- type_coulomb_setupBoundaryConditions: Could not setup numerical thresholds
-9699- type_latticepoint_update: Could not generate lattice points
-9698- xtb_calculator_singlepoint: Electronic structure method terminated
-9697- scf: Setup of Coulomb evaluator failed
-9696- type_coulomb_setupBoundaryConditions: Could not setup numerical thresholds
-9695- type_latticepoint_update: Could not generate lattice points
-9694- xtb_calculator_singlepoint: Electronic structure method terminated
-9693- scf: Setup of Coulomb evaluator failed
-9692- type_coulomb_setupBoundaryConditions: Could not setup numerical thresholds
-9691- type_latticepoint_update: Could not generate lattice points
-9690- xtb_calculator_singlepoint: Electronic structure method terminated
-9689- scf: Setup of Coulomb evaluator failed
-9688- type_coulomb_setupBoundaryConditions: Could not setup numerical thresholds
-9687- type_latticepoint_update: Could not generate lattice points
-9686- xtb_calculator_singlepoint: Electronic structure method terminated
-9685- scf: Setup of Coulomb evaluator failed
-9684- type_coulomb_setupBoundaryConditions: Could not setup numerical thresholds
-9683- type_latticepoint_update: Could not generate lattice points
-9682- xtb_calculator_singlepoint: Electronic structure method terminated
-9681- scf: Setup of Coulomb evaluator failed
-9680- type_coulomb_setupBoundaryConditions: Could not setup numerical thresholds
-9679- type_latticepoint_update: Could not generate lattice points
-9678- xtb_calculator_singlepoint: Electronic structure method terminated
-9677- scf: Setup of Coulomb evaluator failed
-9676- type_coulomb_setupBoundaryConditions: Could not setup numerical thresholds
-9675- type_latticepoint_update: Could not generate lattice points
-9674- xtb_calculator_singlepoint: Electronic structure method terminated
-9673- scf: Setup of Coulomb evaluator failed
-9672- type_coulomb_setupBoundaryConditions: Could not setup numerical thresholds
-9671- type_latticepoint_update: Could not generate lattice points
-9670- xtb_calculator_singlepoint: Electronic structure method terminated
-9669- scf: Setup of Coulomb evaluator failed
-9668- type_coulomb_setupBoundaryConditions: Could not setup numerical thresholds
-9667- type_latticepoint_update: Could not generate lattice points
-9666- xtb_calculator_singlepoint: Electronic structure method terminated
-9665- scf: Setup of Coulomb evaluator failed
-9664- type_coulomb_setupBoundaryConditions: Could not setup numerical thresholds
-9663- type_latticepoint_update: Could not generate lattice points
-9662- xtb_calculator_singlepoint: Electronic structure method terminated
-9661- scf: Setup of Coulomb evaluator failed
-9660- type_coulomb_setupBoundaryConditions: Could not setup numerical thresholds
-9659- type_latticepoint_update: Could not generate lattice points
-9658- xtb_calculator_singlepoint: Electronic structure method terminated
-9657- scf: Setup of Coulomb evaluator failed
-9656- type_coulomb_setupBoundaryConditions: Could not setup numerical thresholds
-9655- type_latticepoint_update: Could not generate lattice points
-9654- xtb_calculator_singlepoint: Electronic structure method terminated
-9653- scf: Setup of Coulomb evaluator failed
-9652- type_coulomb_setupBoundaryConditions: Could not setup numerical thresholds
-9651- type_latticepoint_update: Could not generate lattice points
-9650- xtb_calculator_singlepoint: Electronic structure method terminated
-9649- scf: Setup of Coulomb evaluator failed
-9648- type_coulomb_setupBoundaryConditions: Could not setup numerical thresholds
-9647- type_latticepoint_update: Could not generate lattice points
-9646- xtb_calculator_singlepoint: Electronic structure method terminated
-9645- scf: Setup of Coulomb evaluator failed
-9644- type_coulomb_setupBoundaryConditions: Could not setup numerical thresholds
-9643- type_latticepoint_update: Could not generate lattice points
-9642- xtb_calculator_singlepoint: Electronic structure method terminated
-9641- scf: Setup of Coulomb evaluator failed
-9640- type_coulomb_setupBoundaryConditions: Could not setup numerical thresholds
-9639- type_latticepoint_update: Could not generate lattice points
-9638- xtb_calculator_singlepoint: Electronic structure method terminated
-9637- scf: Setup of Coulomb evaluator failed
-9636- type_coulomb_setupBoundaryConditions: Could not setup numerical thresholds
-9635- type_latticepoint_update: Could not generate lattice points
-9634- xtb_calculator_singlepoint: Electronic structure method terminated
-9633- scf: Setup of Coulomb evaluator failed
-9632- type_coulomb_setupBoundaryConditions: Could not setup numerical thresholds
-9631- type_latticepoint_update: Could not generate lattice points
-9630- xtb_calculator_singlepoint: Electronic structure method terminated
-9629- scf: Setup of Coulomb evaluator failed
-9628- type_coulomb_setupBoundaryConditions: Could not setup numerical thresholds
-9627- type_latticepoint_update: Could not generate lattice points
-9626- xtb_calculator_singlepoint: Electronic structure method terminated
-9625- scf: Setup of Coulomb evaluator failed
-9624- type_coulomb_setupBoundaryConditions: Could not setup numerical thresholds
-9623- type_latticepoint_update: Could not generate lattice points
-9622- xtb_calculator_singlepoint: Electronic structure method terminated
-9621- scf: Setup of Coulomb evaluator failed
-9620- type_coulomb_setupBoundaryConditions: Could not setup numerical thresholds
-9619- type_latticepoint_update: Could not generate lattice points
-9618- xtb_calculator_singlepoint: Electronic structure method terminated
-9617- scf: Setup of Coulomb evaluator failed
-9616- type_coulomb_setupBoundaryConditions: Could not setup numerical thresholds
-9615- type_latticepoint_update: Could not generate lattice points
-9614- xtb_calculator_singlepoint: Electronic structure method terminated
-9613- scf: Setup of Coulomb evaluator failed
-9612- type_coulomb_setupBoundaryConditions: Could not setup numerical thresholds
-9611- type_latticepoint_update: Could not generate lattice points
-9610- xtb_calculator_singlepoint: Electronic structure method terminated
-9609- scf: Setup of Coulomb evaluator failed
-9608- type_coulomb_setupBoundaryConditions: Could not setup numerical thresholds
-9607- type_latticepoint_update: Could not generate lattice points
-9606- xtb_calculator_singlepoint: Electronic structure method terminated
-9605- scf: Setup of Coulomb evaluator failed
-9604- type_coulomb_setupBoundaryConditions: Could not setup numerical thresholds
-9603- type_latticepoint_update: Could not generate lattice points
-9602- xtb_calculator_singlepoint: Electronic structure method terminated
-9601- scf: Setup of Coulomb evaluator failed
-9600- type_coulomb_setupBoundaryConditions: Could not setup numerical thresholds
-9599- type_latticepoint_update: Could not generate lattice points
-9598- xtb_calculator_singlepoint: Electronic structure method terminated
-9597- scf: Setup of Coulomb evaluator failed
-9596- type_coulomb_setupBoundaryConditions: Could not setup numerical thresholds
-9595- type_latticepoint_update: Could not generate lattice points
-9594- xtb_calculator_singlepoint: Electronic structure method terminated
-9593- scf: Setup of Coulomb evaluator failed
-9592- type_coulomb_setupBoundaryConditions: Could not setup numerical thresholds
-9591- type_latticepoint_update: Could not generate lattice points
-9590- xtb_calculator_singlepoint: Electronic structure method terminated
-9589- scf: Setup of Coulomb evaluator failed
-9588- type_coulomb_setupBoundaryConditions: Could not setup numerical thresholds
-9587- type_latticepoint_update: Could not generate lattice points
-9586- xtb_calculator_singlepoint: Electronic structure method terminated
-9585- scf: Setup of Coulomb evaluator failed
-9584- type_coulomb_setupBoundaryConditions: Could not setup numerical thresholds
-9583- type_latticepoint_update: Could not generate lattice points
-9582- xtb_calculator_singlepoint: Electronic structure method terminated
-9581- scf: Setup of Coulomb evaluator failed
-9580- type_coulomb_setupBoundaryConditions: Could not setup numerical thresholds
-9579- type_latticepoint_update: Could not generate lattice points
-9578- xtb_calculator_singlepoint: Electronic structure method terminated
-9577- scf: Setup of Coulomb evaluator failed
-9576- type_coulomb_setupBoundaryConditions: Could not setup numerical thresholds
-9575- type_latticepoint_update: Could not generate lattice points
-9574- xtb_calculator_singlepoint: Electronic structure method terminated
-9573- scf: Setup of Coulomb evaluator failed
-9572- type_coulomb_setupBoundaryConditions: Could not setup numerical thresholds
-9571- type_latticepoint_update: Could not generate lattice points
-9570- xtb_calculator_singlepoint: Electronic structure method terminated
-9569- scf: Setup of Coulomb evaluator failed
-9568- type_coulomb_setupBoundaryConditions: Could not setup numerical thresholds
-9567- type_latticepoint_update: Could not generate lattice points
-9566- xtb_calculator_singlepoint: Electronic structure method terminated
-9565- scf: Setup of Coulomb evaluator failed
-9564- type_coulomb_setupBoundaryConditions: Could not setup numerical thresholds
-9563- type_latticepoint_update: Could not generate lattice points
-9562- xtb_calculator_singlepoint: Electronic structure method terminated
-9561- scf: Setup of Coulomb evaluator failed
-9560- type_coulomb_setupBoundaryConditions: Could not setup numerical thresholds
-9559- type_latticepoint_update: Could not generate lattice points
-9558- xtb_calculator_singlepoint: Electronic structure method terminated
-9557- scf: Setup of Coulomb evaluator failed
-9556- type_coulomb_setupBoundaryConditions: Could not setup numerical thresholds
-9555- type_latticepoint_update: Could not generate lattice points
-9554- xtb_calculator_singlepoint: Electronic structure method terminated
-9553- scf: Setup of Coulomb evaluator failed
-9552- type_coulomb_setupBoundaryConditions: Could not setup numerical thresholds
-9551- type_latticepoint_update: Could not generate lattice points
-9550- xtb_calculator_singlepoint: Electronic structure method terminated
-9549- scf: Setup of Coulomb evaluator failed
-9548- type_coulomb_setupBoundaryConditions: Could not setup numerical thresholds
-9547- type_latticepoint_update: Could not generate lattice points
-9546- xtb_calculator_singlepoint: Electronic structure method terminated
-9545- scf: Setup of Coulomb evaluator failed
-9544- type_coulomb_setupBoundaryConditions: Could not setup numerical thresholds
-9543- type_latticepoint_update: Could not generate lattice points
-9542- xtb_calculator_singlepoint: Electronic structure method terminated
-9541- scf: Setup of Coulomb evaluator failed
-9540- type_coulomb_setupBoundaryConditions: Could not setup numerical thresholds
-9539- type_latticepoint_update: Could not generate lattice points
-9538- xtb_calculator_singlepoint: Electronic structure method terminated
-9537- scf: Setup of Coulomb evaluator failed
-9536- type_coulomb_setupBoundaryConditions: Could not setup numerical thresholds
-9535- type_latticepoint_update: Could not generate lattice points
-9534- xtb_calculator_singlepoint: Electronic structure method terminated
-9533- scf: Setup of Coulomb evaluator failed
-9532- type_coulomb_setupBoundaryConditions: Could not setup numerical thresholds
-9531- type_latticepoint_update: Could not generate lattice points
-9530- xtb_calculator_singlepoint: Electronic structure method terminated
-9529- scf: Setup of Coulomb evaluator failed
-9528- type_coulomb_setupBoundaryConditions: Could not setup numerical thresholds
-9527- type_latticepoint_update: Could not generate lattice points
-9526- xtb_calculator_singlepoint: Electronic structure method terminated
-9525- scf: Setup of Coulomb evaluator failed
-9524- type_coulomb_setupBoundaryConditions: Could not setup numerical thresholds
-9523- type_latticepoint_update: Could not generate lattice points
-9522- xtb_calculator_singlepoint: Electronic structure method terminated
-9521- scf: Setup of Coulomb evaluator failed
-9520- type_coulomb_setupBoundaryConditions: Could not setup numerical thresholds
-9519- type_latticepoint_update: Could not generate lattice points
-9518- xtb_calculator_singlepoint: Electronic structure method terminated
-9517- scf: Setup of Coulomb evaluator failed
-9516- type_coulomb_setupBoundaryConditions: Could not setup numerical thresholds
-9515- type_latticepoint_update: Could not generate lattice points
-9514- xtb_calculator_singlepoint: Electronic structure method terminated
-9513- scf: Setup of Coulomb evaluator failed
-9512- type_coulomb_setupBoundaryConditions: Could not setup numerical thresholds
-9511- type_latticepoint_update: Could not generate lattice points
-9510- xtb_calculator_singlepoint: Electronic structure method terminated
-9509- scf: Setup of Coulomb evaluator failed
-9508- type_coulomb_setupBoundaryConditions: Could not setup numerical thresholds
-9507- type_latticepoint_update: Could not generate lattice points
-9506- xtb_calculator_singlepoint: Electronic structure method terminated
-9505- scf: Setup of Coulomb evaluator failed
-9504- type_coulomb_setupBoundaryConditions: Could not setup numerical thresholds
-9503- type_latticepoint_update: Could not generate lattice points
-9502- xtb_calculator_singlepoint: Electronic structure method terminated
-9501- scf: Setup of Coulomb evaluator failed
-9500- type_coulomb_setupBoundaryConditions: Could not setup numerical thresholds
-9499- type_latticepoint_update: Could not generate lattice points
-9498- xtb_calculator_singlepoint: Electronic structure method terminated
-9497- scf: Setup of Coulomb evaluator failed
-9496- type_coulomb_setupBoundaryConditions: Could not setup numerical thresholds
-9495- type_latticepoint_update: Could not generate lattice points
-9494- xtb_calculator_singlepoint: Electronic structure method terminated
-9493- scf: Setup of Coulomb evaluator failed
-9492- type_coulomb_setupBoundaryConditions: Could not setup numerical thresholds
-9491- type_latticepoint_update: Could not generate lattice points
-9490- xtb_calculator_singlepoint: Electronic structure method terminated
-9489- scf: Setup of Coulomb evaluator failed
-9488- type_coulomb_setupBoundaryConditions: Could not setup numerical thresholds
-9487- type_latticepoint_update: Could not generate lattice points
-9486- xtb_calculator_singlepoint: Electronic structure method terminated
-9485- scf: Setup of Coulomb evaluator failed
-9484- type_coulomb_setupBoundaryConditions: Could not setup numerical thresholds
-9483- type_latticepoint_update: Could not generate lattice points
-9482- xtb_calculator_singlepoint: Electronic structure method terminated
-9481- scf: Setup of Coulomb evaluator failed
-9480- type_coulomb_setupBoundaryConditions: Could not setup numerical thresholds
-9479- type_latticepoint_update: Could not generate lattice points
-9478- xtb_calculator_singlepoint: Electronic structure method terminated
-9477- scf: Setup of Coulomb evaluator failed
-9476- type_coulomb_setupBoundaryConditions: Could not setup numerical thresholds
-9475- type_latticepoint_update: Could not generate lattice points
-9474- xtb_calculator_singlepoint: Electronic structure method terminated
-9473- scf: Setup of Coulomb evaluator failed
-9472- type_coulomb_setupBoundaryConditions: Could not setup numerical thresholds
-9471- type_latticepoint_update: Could not generate lattice points
-9470- xtb_calculator_singlepoint: Electronic structure method terminated
-9469- scf: Setup of Coulomb evaluator failed
-9468- type_coulomb_setupBoundaryConditions: Could not setup numerical thresholds
-9467- type_latticepoint_update: Could not generate lattice points
-9466- xtb_calculator_singlepoint: Electronic structure method terminated
-9465- scf: Setup of Coulomb evaluator failed
-9464- type_coulomb_setupBoundaryConditions: Could not setup numerical thresholds
-9463- type_latticepoint_update: Could not generate lattice points
-9462- xtb_calculator_singlepoint: Electronic structure method terminated
-9461- scf: Setup of Coulomb evaluator failed
-9460- type_coulomb_setupBoundaryConditions: Could not setup numerical thresholds
-9459- type_latticepoint_update: Could not generate lattice points
-9458- xtb_calculator_singlepoint: Electronic structure method terminated
-9457- scf: Setup of Coulomb evaluator failed
-9456- type_coulomb_setupBoundaryConditions: Could not setup numerical thresholds
-9455- type_latticepoint_update: Could not generate lattice points
-9454- xtb_calculator_singlepoint: Electronic structure method terminated
-9453- scf: Setup of Coulomb evaluator failed
-9452- type_coulomb_setupBoundaryConditions: Could not setup numerical thresholds
-9451- type_latticepoint_update: Could not generate lattice points
-9450- xtb_calculator_singlepoint: Electronic structure method terminated
-9449- scf: Setup of Coulomb evaluator failed
-9448- type_coulomb_setupBoundaryConditions: Could not setup numerical thresholds
-9447- type_latticepoint_update: Could not generate lattice points
-9446- xtb_calculator_singlepoint: Electronic structure method terminated
-9445- scf: Setup of Coulomb evaluator failed
-9444- type_coulomb_setupBoundaryConditions: Could not setup numerical thresholds
-9443- type_latticepoint_update: Could not generate lattice points
-9442- xtb_calculator_singlepoint: Electronic structure method terminated
-9441- scf: Setup of Coulomb evaluator failed
-9440- type_coulomb_setupBoundaryConditions: Could not setup numerical thresholds
-9439- type_latticepoint_update: Could not generate lattice points
-9438- xtb_calculator_singlepoint: Electronic structure method terminated
-9437- scf: Setup of Coulomb evaluator failed
-9436- type_coulomb_setupBoundaryConditions: Could not setup numerical thresholds
-9435- type_latticepoint_update: Could not generate lattice points
-9434- xtb_calculator_singlepoint: Electronic structure method terminated
-9433- scf: Setup of Coulomb evaluator failed
-9432- type_coulomb_setupBoundaryConditions: Could not setup numerical thresholds
-9431- type_latticepoint_update: Could not generate lattice points
-9430- xtb_calculator_singlepoint: Electronic structure method terminated
-9429- scf: Setup of Coulomb evaluator failed
-9428- type_coulomb_setupBoundaryConditions: Could not setup numerical thresholds
-9427- type_latticepoint_update: Could not generate lattice points
-9426- xtb_calculator_singlepoint: Electronic structure method terminated
-9425- scf: Setup of Coulomb evaluator failed
-9424- type_coulomb_setupBoundaryConditions: Could not setup numerical thresholds
-9423- type_latticepoint_update: Could not generate lattice points
-9422- xtb_calculator_singlepoint: Electronic structure method terminated
-9421- scf: Setup of Coulomb evaluator failed
-9420- type_coulomb_setupBoundaryConditions: Could not setup numerical thresholds
-9419- type_latticepoint_update: Could not generate lattice points
-9418- xtb_calculator_singlepoint: Electronic structure method terminated
-9417- scf: Setup of Coulomb evaluator failed
-9416- type_coulomb_setupBoundaryConditions: Could not setup numerical thresholds
-9415- type_latticepoint_update: Could not generate lattice points
-9414- xtb_calculator_singlepoint: Electronic structure method terminated
-9413- scf: Setup of Coulomb evaluator failed
-9412- type_coulomb_setupBoundaryConditions: Could not setup numerical thresholds
-9411- type_latticepoint_update: Could not generate lattice points
-9410- xtb_calculator_singlepoint: Electronic structure method terminated
-9409- scf: Setup of Coulomb evaluator failed
-9408- type_coulomb_setupBoundaryConditions: Could not setup numerical thresholds
-9407- type_latticepoint_update: Could not generate lattice points
-9406- xtb_calculator_singlepoint: Electronic structure method terminated
-9405- scf: Setup of Coulomb evaluator failed
-9404- type_coulomb_setupBoundaryConditions: Could not setup numerical thresholds
-9403- type_latticepoint_update: Could not generate lattice points
-9402- xtb_calculator_singlepoint: Electronic structure method terminated
-9401- scf: Setup of Coulomb evaluator failed
-9400- type_coulomb_setupBoundaryConditions: Could not setup numerical thresholds
-9399- type_latticepoint_update: Could not generate lattice points
-9398- xtb_calculator_singlepoint: Electronic structure method terminated
-9397- scf: Setup of Coulomb evaluator failed
-9396- type_coulomb_setupBoundaryConditions: Could not setup numerical thresholds
-9395- type_latticepoint_update: Could not generate lattice points
-9394- xtb_calculator_singlepoint: Electronic structure method terminated
-9393- scf: Setup of Coulomb evaluator failed
-9392- type_coulomb_setupBoundaryConditions: Could not setup numerical thresholds
-9391- type_latticepoint_update: Could not generate lattice points
-9390- xtb_calculator_singlepoint: Electronic structure method terminated
-9389- scf: Setup of Coulomb evaluator failed
-9388- type_coulomb_setupBoundaryConditions: Could not setup numerical thresholds
-9387- type_latticepoint_update: Could not generate lattice points
-9386- xtb_calculator_singlepoint: Electronic structure method terminated
-9385- scf: Setup of Coulomb evaluator failed
-9384- type_coulomb_setupBoundaryConditions: Could not setup numerical thresholds
-9383- type_latticepoint_update: Could not generate lattice points
-9382- xtb_calculator_singlepoint: Electronic structure method terminated
-9381- scf: Setup of Coulomb evaluator failed
-9380- type_coulomb_setupBoundaryConditions: Could not setup numerical thresholds
-9379- type_latticepoint_update: Could not generate lattice points
-9378- xtb_calculator_singlepoint: Electronic structure method terminated
-9377- scf: Setup of Coulomb evaluator failed
-9376- type_coulomb_setupBoundaryConditions: Could not setup numerical thresholds
-9375- type_latticepoint_update: Could not generate lattice points
-9374- xtb_calculator_singlepoint: Electronic structure method terminated
-9373- scf: Setup of Coulomb evaluator failed
-9372- type_coulomb_setupBoundaryConditions: Could not setup numerical thresholds
-9371- type_latticepoint_update: Could not generate lattice points
-9370- xtb_calculator_singlepoint: Electronic structure method terminated
-9369- scf: Setup of Coulomb evaluator failed
-9368- type_coulomb_setupBoundaryConditions: Could not setup numerical thresholds
-9367- type_latticepoint_update: Could not generate lattice points
-9366- xtb_calculator_singlepoint: Electronic structure method terminated
-9365- scf: Setup of Coulomb evaluator failed
-9364- type_coulomb_setupBoundaryConditions: Could not setup numerical thresholds
-9363- type_latticepoint_update: Could not generate lattice points
-9362- xtb_calculator_singlepoint: Electronic structure method terminated
-9361- scf: Setup of Coulomb evaluator failed
-9360- type_coulomb_setupBoundaryConditions: Could not setup numerical thresholds
-9359- type_latticepoint_update: Could not generate lattice points
-9358- xtb_calculator_singlepoint: Electronic structure method terminated
-9357- scf: Setup of Coulomb evaluator failed
-9356- type_coulomb_setupBoundaryConditions: Could not setup numerical thresholds
-9355- type_latticepoint_update: Could not generate lattice points
-9354- xtb_calculator_singlepoint: Electronic structure method terminated
-9353- scf: Setup of Coulomb evaluator failed
-9352- type_coulomb_setupBoundaryConditions: Could not setup numerical thresholds
-9351- type_latticepoint_update: Could not generate lattice points
-9350- xtb_calculator_singlepoint: Electronic structure method terminated
-9349- scf: Setup of Coulomb evaluator failed
-9348- type_coulomb_setupBoundaryConditions: Could not setup numerical thresholds
-9347- type_latticepoint_update: Could not generate lattice points
-9346- xtb_calculator_singlepoint: Electronic structure method terminated
-9345- scf: Setup of Coulomb evaluator failed
-9344- type_coulomb_setupBoundaryConditions: Could not setup numerical thresholds
-9343- type_latticepoint_update: Could not generate lattice points
-9342- xtb_calculator_singlepoint: Electronic structure method terminated
-9341- scf: Setup of Coulomb evaluator failed
-9340- type_coulomb_setupBoundaryConditions: Could not setup numerical thresholds
-9339- type_latticepoint_update: Could not generate lattice points
-9338- xtb_calculator_singlepoint: Electronic structure method terminated
-9337- scf: Setup of Coulomb evaluator failed
-9336- type_coulomb_setupBoundaryConditions: Could not setup numerical thresholds
-9335- type_latticepoint_update: Could not generate lattice points
-9334- xtb_calculator_singlepoint: Electronic structure method terminated
-9333- scf: Setup of Coulomb evaluator failed
-9332- type_coulomb_setupBoundaryConditions: Could not setup numerical thresholds
-9331- type_latticepoint_update: Could not generate lattice points
-9330- xtb_calculator_singlepoint: Electronic structure method terminated
-9329- scf: Setup of Coulomb evaluator failed
-9328- type_coulomb_setupBoundaryConditions: Could not setup numerical thresholds
-9327- type_latticepoint_update: Could not generate lattice points
-9326- xtb_calculator_singlepoint: Electronic structure method terminated
-9325- scf: Setup of Coulomb evaluator failed
-9324- type_coulomb_setupBoundaryConditions: Could not setup numerical thresholds
-9323- type_latticepoint_update: Could not generate lattice points
-9322- xtb_calculator_singlepoint: Electronic structure method terminated
-9321- scf: Setup of Coulomb evaluator failed
-9320- type_coulomb_setupBoundaryConditions: Could not setup numerical thresholds
-9319- type_latticepoint_update: Could not generate lattice points
-9318- xtb_calculator_singlepoint: Electronic structure method terminated
-9317- scf: Setup of Coulomb evaluator failed
-9316- type_coulomb_setupBoundaryConditions: Could not setup numerical thresholds
-9315- type_latticepoint_update: Could not generate lattice points
-9314- xtb_calculator_singlepoint: Electronic structure method terminated
-9313- scf: Setup of Coulomb evaluator failed
-9312- type_coulomb_setupBoundaryConditions: Could not setup numerical thresholds
-9311- type_latticepoint_update: Could not generate lattice points
-9310- xtb_calculator_singlepoint: Electronic structure method terminated
-9309- scf: Setup of Coulomb evaluator failed
-9308- type_coulomb_setupBoundaryConditions: Could not setup numerical thresholds
-9307- type_latticepoint_update: Could not generate lattice points
-9306- xtb_calculator_singlepoint: Electronic structure method terminated
-9305- scf: Setup of Coulomb evaluator failed
-9304- type_coulomb_setupBoundaryConditions: Could not setup numerical thresholds
-9303- type_latticepoint_update: Could not generate lattice points
-9302- xtb_calculator_singlepoint: Electronic structure method terminated
-9301- scf: Setup of Coulomb evaluator failed
-9300- type_coulomb_setupBoundaryConditions: Could not setup numerical thresholds
-9299- type_latticepoint_update: Could not generate lattice points
-9298- xtb_calculator_singlepoint: Electronic structure method terminated
-9297- scf: Setup of Coulomb evaluator failed
-9296- type_coulomb_setupBoundaryConditions: Could not setup numerical thresholds
-9295- type_latticepoint_update: Could not generate lattice points
-9294- xtb_calculator_singlepoint: Electronic structure method terminated
-9293- scf: Setup of Coulomb evaluator failed
-9292- type_coulomb_setupBoundaryConditions: Could not setup numerical thresholds
-9291- type_latticepoint_update: Could not generate lattice points
-9290- xtb_calculator_singlepoint: Electronic structure method terminated
-9289- scf: Setup of Coulomb evaluator failed
-9288- type_coulomb_setupBoundaryConditions: Could not setup numerical thresholds
-9287- type_latticepoint_update: Could not generate lattice points
-9286- xtb_calculator_singlepoint: Electronic structure method terminated
-9285- scf: Setup of Coulomb evaluator failed
-9284- type_coulomb_setupBoundaryConditions: Could not setup numerical thresholds
-9283- type_latticepoint_update: Could not generate lattice points
-9282- xtb_calculator_singlepoint: Electronic structure method terminated
-9281- scf: Setup of Coulomb evaluator failed
-9280- type_coulomb_setupBoundaryConditions: Could not setup numerical thresholds
-9279- type_latticepoint_update: Could not generate lattice points
-9278- xtb_calculator_singlepoint: Electronic structure method terminated
-9277- scf: Setup of Coulomb evaluator failed
-9276- type_coulomb_setupBoundaryConditions: Could not setup numerical thresholds
-9275- type_latticepoint_update: Could not generate lattice points
-9274- xtb_calculator_singlepoint: Electronic structure method terminated
-9273- scf: Setup of Coulomb evaluator failed
-9272- type_coulomb_setupBoundaryConditions: Could not setup numerical thresholds
-9271- type_latticepoint_update: Could not generate lattice points
-9270- xtb_calculator_singlepoint: Electronic structure method terminated
-9269- scf: Setup of Coulomb evaluator failed
-9268- type_coulomb_setupBoundaryConditions: Could not setup numerical thresholds
-9267- type_latticepoint_update: Could not generate lattice points
-9266- xtb_calculator_singlepoint: Electronic structure method terminated
-9265- scf: Setup of Coulomb evaluator failed
-9264- type_coulomb_setupBoundaryConditions: Could not setup numerical thresholds
-9263- type_latticepoint_update: Could not generate lattice points
-9262- xtb_calculator_singlepoint: Electronic structure method terminated
-9261- scf: Setup of Coulomb evaluator failed
-9260- type_coulomb_setupBoundaryConditions: Could not setup numerical thresholds
-9259- type_latticepoint_update: Could not generate lattice points
-9258- xtb_calculator_singlepoint: Electronic structure method terminated
-9257- scf: Setup of Coulomb evaluator failed
-9256- type_coulomb_setupBoundaryConditions: Could not setup numerical thresholds
-9255- type_latticepoint_update: Could not generate lattice points
-9254- xtb_calculator_singlepoint: Electronic structure method terminated
-9253- scf: Setup of Coulomb evaluator failed
-9252- type_coulomb_setupBoundaryConditions: Could not setup numerical thresholds
-9251- type_latticepoint_update: Could not generate lattice points
-9250- xtb_calculator_singlepoint: Electronic structure method terminated
-9249- scf: Setup of Coulomb evaluator failed
-9248- type_coulomb_setupBoundaryConditions: Could not setup numerical thresholds
-9247- type_latticepoint_update: Could not generate lattice points
-9246- xtb_calculator_singlepoint: Electronic structure method terminated
-9245- scf: Setup of Coulomb evaluator failed
-9244- type_coulomb_setupBoundaryConditions: Could not setup numerical thresholds
-9243- type_latticepoint_update: Could not generate lattice points
-9242- xtb_calculator_singlepoint: Electronic structure method terminated
-9241- scf: Setup of Coulomb evaluator failed
-9240- type_coulomb_setupBoundaryConditions: Could not setup numerical thresholds
-9239- type_latticepoint_update: Could not generate lattice points
-9238- xtb_calculator_singlepoint: Electronic structure method terminated
-9237- scf: Setup of Coulomb evaluator failed
-9236- type_coulomb_setupBoundaryConditions: Could not setup numerical thresholds
-9235- type_latticepoint_update: Could not generate lattice points
-9234- xtb_calculator_singlepoint: Electronic structure method terminated
-9233- scf: Setup of Coulomb evaluator failed
-9232- type_coulomb_setupBoundaryConditions: Could not setup numerical thresholds
-9231- type_latticepoint_update: Could not generate lattice points
-9230- xtb_calculator_singlepoint: Electronic structure method terminated
-9229- scf: Setup of Coulomb evaluator failed
-9228- type_coulomb_setupBoundaryConditions: Could not setup numerical thresholds
-9227- type_latticepoint_update: Could not generate lattice points
-9226- xtb_calculator_singlepoint: Electronic structure method terminated
-9225- scf: Setup of Coulomb evaluator failed
-9224- type_coulomb_setupBoundaryConditions: Could not setup numerical thresholds
-9223- type_latticepoint_update: Could not generate lattice points
-9222- xtb_calculator_singlepoint: Electronic structure method terminated
-9221- scf: Setup of Coulomb evaluator failed
-9220- type_coulomb_setupBoundaryConditions: Could not setup numerical thresholds
-9219- type_latticepoint_update: Could not generate lattice points
-9218- xtb_calculator_singlepoint: Electronic structure method terminated
-9217- scf: Setup of Coulomb evaluator failed
-9216- type_coulomb_setupBoundaryConditions: Could not setup numerical thresholds
-9215- type_latticepoint_update: Could not generate lattice points
-9214- xtb_calculator_singlepoint: Electronic structure method terminated
-9213- scf: Setup of Coulomb evaluator failed
-9212- type_coulomb_setupBoundaryConditions: Could not setup numerical thresholds
-9211- type_latticepoint_update: Could not generate lattice points
-9210- xtb_calculator_singlepoint: Electronic structure method terminated
-9209- scf: Setup of Coulomb evaluator failed
-9208- type_coulomb_setupBoundaryConditions: Could not setup numerical thresholds
-9207- type_latticepoint_update: Could not generate lattice points
-9206- xtb_calculator_singlepoint: Electronic structure method terminated
-9205- scf: Setup of Coulomb evaluator failed
-9204- type_coulomb_setupBoundaryConditions: Could not setup numerical thresholds
-9203- type_latticepoint_update: Could not generate lattice points
-9202- xtb_calculator_singlepoint: Electronic structure method terminated
-9201- scf: Setup of Coulomb evaluator failed
-9200- type_coulomb_setupBoundaryConditions: Could not setup numerical thresholds
-9199- type_latticepoint_update: Could not generate lattice points
-9198- xtb_calculator_singlepoint: Electronic structure method terminated
-9197- scf: Setup of Coulomb evaluator failed
-9196- type_coulomb_setupBoundaryConditions: Could not setup numerical thresholds
-9195- type_latticepoint_update: Could not generate lattice points
-9194- xtb_calculator_singlepoint: Electronic structure method terminated
-9193- scf: Setup of Coulomb evaluator failed
-9192- type_coulomb_setupBoundaryConditions: Could not setup numerical thresholds
-9191- type_latticepoint_update: Could not generate lattice points
-9190- xtb_calculator_singlepoint: Electronic structure method terminated
-9189- scf: Setup of Coulomb evaluator failed
-9188- type_coulomb_setupBoundaryConditions: Could not setup numerical thresholds
-9187- type_latticepoint_update: Could not generate lattice points
-9186- xtb_calculator_singlepoint: Electronic structure method terminated
-9185- scf: Setup of Coulomb evaluator failed
-9184- type_coulomb_setupBoundaryConditions: Could not setup numerical thresholds
-9183- type_latticepoint_update: Could not generate lattice points
-9182- xtb_calculator_singlepoint: Electronic structure method terminated
-9181- scf: Setup of Coulomb evaluator failed
-9180- type_coulomb_setupBoundaryConditions: Could not setup numerical thresholds
-9179- type_latticepoint_update: Could not generate lattice points
-9178- xtb_calculator_singlepoint: Electronic structure method terminated
-9177- scf: Setup of Coulomb evaluator failed
-9176- type_coulomb_setupBoundaryConditions: Could not setup numerical thresholds
-9175- type_latticepoint_update: Could not generate lattice points
-9174- xtb_calculator_singlepoint: Electronic structure method terminated
-9173- scf: Setup of Coulomb evaluator failed
-9172- type_coulomb_setupBoundaryConditions: Could not setup numerical thresholds
-9171- type_latticepoint_update: Could not generate lattice points
-9170- xtb_calculator_singlepoint: Electronic structure method terminated
-9169- scf: Setup of Coulomb evaluator failed
-9168- type_coulomb_setupBoundaryConditions: Could not setup numerical thresholds
-9167- type_latticepoint_update: Could not generate lattice points
-9166- xtb_calculator_singlepoint: Electronic structure method terminated
-9165- scf: Setup of Coulomb evaluator failed
-9164- type_coulomb_setupBoundaryConditions: Could not setup numerical thresholds
-9163- type_latticepoint_update: Could not generate lattice points
-9162- xtb_calculator_singlepoint: Electronic structure method terminated
-9161- scf: Setup of Coulomb evaluator failed
-9160- type_coulomb_setupBoundaryConditions: Could not setup numerical thresholds
-9159- type_latticepoint_update: Could not generate lattice points
-9158- xtb_calculator_singlepoint: Electronic structure method terminated
-9157- scf: Setup of Coulomb evaluator failed
-9156- type_coulomb_setupBoundaryConditions: Could not setup numerical thresholds
-9155- type_latticepoint_update: Could not generate lattice points
-9154- xtb_calculator_singlepoint: Electronic structure method terminated
-9153- scf: Setup of Coulomb evaluator failed
-9152- type_coulomb_setupBoundaryConditions: Could not setup numerical thresholds
-9151- type_latticepoint_update: Could not generate lattice points
-9150- xtb_calculator_singlepoint: Electronic structure method terminated
-9149- scf: Setup of Coulomb evaluator failed
-9148- type_coulomb_setupBoundaryConditions: Could not setup numerical thresholds
-9147- type_latticepoint_update: Could not generate lattice points
-9146- xtb_calculator_singlepoint: Electronic structure method terminated
-9145- scf: Setup of Coulomb evaluator failed
-9144- type_coulomb_setupBoundaryConditions: Could not setup numerical thresholds
-9143- type_latticepoint_update: Could not generate lattice points
-9142- xtb_calculator_singlepoint: Electronic structure method terminated
-9141- scf: Setup of Coulomb evaluator failed
-9140- type_coulomb_setupBoundaryConditions: Could not setup numerical thresholds
-9139- type_latticepoint_update: Could not generate lattice points
-9138- xtb_calculator_singlepoint: Electronic structure method terminated
-9137- scf: Setup of Coulomb evaluator failed
-9136- type_coulomb_setupBoundaryConditions: Could not setup numerical thresholds
-9135- type_latticepoint_update: Could not generate lattice points
-9134- xtb_calculator_singlepoint: Electronic structure method terminated
-9133- scf: Setup of Coulomb evaluator failed
-9132- type_coulomb_setupBoundaryConditions: Could not setup numerical thresholds
-9131- type_latticepoint_update: Could not generate lattice points
-9130- xtb_calculator_singlepoint: Electronic structure method terminated
-9129- scf: Setup of Coulomb evaluator failed
-9128- type_coulomb_setupBoundaryConditions: Could not setup numerical thresholds
-9127- type_latticepoint_update: Could not generate lattice points
-9126- xtb_calculator_singlepoint: Electronic structure method terminated
-9125- scf: Setup of Coulomb evaluator failed
-9124- type_coulomb_setupBoundaryConditions: Could not setup numerical thresholds
-9123- type_latticepoint_update: Could not generate lattice points
-9122- xtb_calculator_singlepoint: Electronic structure method terminated
-9121- scf: Setup of Coulomb evaluator failed
-9120- type_coulomb_setupBoundaryConditions: Could not setup numerical thresholds
-9119- type_latticepoint_update: Could not generate lattice points
-9118- xtb_calculator_singlepoint: Electronic structure method terminated
-9117- scf: Setup of Coulomb evaluator failed
-9116- type_coulomb_setupBoundaryConditions: Could not setup numerical thresholds
-9115- type_latticepoint_update: Could not generate lattice points
-9114- xtb_calculator_singlepoint: Electronic structure method terminated
-9113- scf: Setup of Coulomb evaluator failed
-9112- type_coulomb_setupBoundaryConditions: Could not setup numerical thresholds
-9111- type_latticepoint_update: Could not generate lattice points
-9110- xtb_calculator_singlepoint: Electronic structure method terminated
-9109- scf: Setup of Coulomb evaluator failed
-9108- type_coulomb_setupBoundaryConditions: Could not setup numerical thresholds
-9107- type_latticepoint_update: Could not generate lattice points
-9106- xtb_calculator_singlepoint: Electronic structure method terminated
-9105- scf: Setup of Coulomb evaluator failed
-9104- type_coulomb_setupBoundaryConditions: Could not setup numerical thresholds
-9103- type_latticepoint_update: Could not generate lattice points
-9102- xtb_calculator_singlepoint: Electronic structure method terminated
-9101- scf: Setup of Coulomb evaluator failed
-9100- type_coulomb_setupBoundaryConditions: Could not setup numerical thresholds
-9099- type_latticepoint_update: Could not generate lattice points
-9098- xtb_calculator_singlepoint: Electronic structure method terminated
-9097- scf: Setup of Coulomb evaluator failed
-9096- type_coulomb_setupBoundaryConditions: Could not setup numerical thresholds
-9095- type_latticepoint_update: Could not generate lattice points
-9094- xtb_calculator_singlepoint: Electronic structure method terminated
-9093- scf: Setup of Coulomb evaluator failed
-9092- type_coulomb_setupBoundaryConditions: Could not setup numerical thresholds
-9091- type_latticepoint_update: Could not generate lattice points
-9090- xtb_calculator_singlepoint: Electronic structure method terminated
-9089- scf: Setup of Coulomb evaluator failed
-9088- type_coulomb_setupBoundaryConditions: Could not setup numerical thresholds
-9087- type_latticepoint_update: Could not generate lattice points
-9086- xtb_calculator_singlepoint: Electronic structure method terminated
-9085- scf: Setup of Coulomb evaluator failed
-9084- type_coulomb_setupBoundaryConditions: Could not setup numerical thresholds
-9083- type_latticepoint_update: Could not generate lattice points
-9082- xtb_calculator_singlepoint: Electronic structure method terminated
-9081- scf: Setup of Coulomb evaluator failed
-9080- type_coulomb_setupBoundaryConditions: Could not setup numerical thresholds
-9079- type_latticepoint_update: Could not generate lattice points
-9078- xtb_calculator_singlepoint: Electronic structure method terminated
-9077- scf: Setup of Coulomb evaluator failed
-9076- type_coulomb_setupBoundaryConditions: Could not setup numerical thresholds
-9075- type_latticepoint_update: Could not generate lattice points
-9074- xtb_calculator_singlepoint: Electronic structure method terminated
-9073- scf: Setup of Coulomb evaluator failed
-9072- type_coulomb_setupBoundaryConditions: Could not setup numerical thresholds
-9071- type_latticepoint_update: Could not generate lattice points
-9070- xtb_calculator_singlepoint: Electronic structure method terminated
-9069- scf: Setup of Coulomb evaluator failed
-9068- type_coulomb_setupBoundaryConditions: Could not setup numerical thresholds
-9067- type_latticepoint_update: Could not generate lattice points
-9066- xtb_calculator_singlepoint: Electronic structure method terminated
-9065- scf: Setup of Coulomb evaluator failed
-9064- type_coulomb_setupBoundaryConditions: Could not setup numerical thresholds
-9063- type_latticepoint_update: Could not generate lattice points
-9062- xtb_calculator_singlepoint: Electronic structure method terminated
-9061- scf: Setup of Coulomb evaluator failed
-9060- type_coulomb_setupBoundaryConditions: Could not setup numerical thresholds
-9059- type_latticepoint_update: Could not generate lattice points
-9058- xtb_calculator_singlepoint: Electronic structure method terminated
-9057- scf: Setup of Coulomb evaluator failed
-9056- type_coulomb_setupBoundaryConditions: Could not setup numerical thresholds
-9055- type_latticepoint_update: Could not generate lattice points
-9054- xtb_calculator_singlepoint: Electronic structure method terminated
-9053- scf: Setup of Coulomb evaluator failed
-9052- type_coulomb_setupBoundaryConditions: Could not setup numerical thresholds
-9051- type_latticepoint_update: Could not generate lattice points
-9050- xtb_calculator_singlepoint: Electronic structure method terminated
-9049- scf: Setup of Coulomb evaluator failed
-9048- type_coulomb_setupBoundaryConditions: Could not setup numerical thresholds
-9047- type_latticepoint_update: Could not generate lattice points
-9046- xtb_calculator_singlepoint: Electronic structure method terminated
-9045- scf: Setup of Coulomb evaluator failed
-9044- type_coulomb_setupBoundaryConditions: Could not setup numerical thresholds
-9043- type_latticepoint_update: Could not generate lattice points
-9042- xtb_calculator_singlepoint: Electronic structure method terminated
-9041- scf: Setup of Coulomb evaluator failed
-9040- type_coulomb_setupBoundaryConditions: Could not setup numerical thresholds
-9039- type_latticepoint_update: Could not generate lattice points
-9038- xtb_calculator_singlepoint: Electronic structure method terminated
-9037- scf: Setup of Coulomb evaluator failed
-9036- type_coulomb_setupBoundaryConditions: Could not setup numerical thresholds
-9035- type_latticepoint_update: Could not generate lattice points
-9034- xtb_calculator_singlepoint: Electronic structure method terminated
-9033- scf: Setup of Coulomb evaluator failed
-9032- type_coulomb_setupBoundaryConditions: Could not setup numerical thresholds
-9031- type_latticepoint_update: Could not generate lattice points
-9030- xtb_calculator_singlepoint: Electronic structure method terminated
-9029- scf: Setup of Coulomb evaluator failed
-9028- type_coulomb_setupBoundaryConditions: Could not setup numerical thresholds
-9027- type_latticepoint_update: Could not generate lattice points
-9026- xtb_calculator_singlepoint: Electronic structure method terminated
-9025- scf: Setup of Coulomb evaluator failed
-9024- type_coulomb_setupBoundaryConditions: Could not setup numerical thresholds
-9023- type_latticepoint_update: Could not generate lattice points
-9022- xtb_calculator_singlepoint: Electronic structure method terminated
-9021- scf: Setup of Coulomb evaluator failed
-9020- type_coulomb_setupBoundaryConditions: Could not setup numerical thresholds
-9019- type_latticepoint_update: Could not generate lattice points
-9018- xtb_calculator_singlepoint: Electronic structure method terminated
-9017- scf: Setup of Coulomb evaluator failed
-9016- type_coulomb_setupBoundaryConditions: Could not setup numerical thresholds
-9015- type_latticepoint_update: Could not generate lattice points
-9014- xtb_calculator_singlepoint: Electronic structure method terminated
-9013- scf: Setup of Coulomb evaluator failed
-9012- type_coulomb_setupBoundaryConditions: Could not setup numerical thresholds
-9011- type_latticepoint_update: Could not generate lattice points
-9010- xtb_calculator_singlepoint: Electronic structure method terminated
-9009- scf: Setup of Coulomb evaluator failed
-9008- type_coulomb_setupBoundaryConditions: Could not setup numerical thresholds
-9007- type_latticepoint_update: Could not generate lattice points
-9006- xtb_calculator_singlepoint: Electronic structure method terminated
-9005- scf: Setup of Coulomb evaluator failed
-9004- type_coulomb_setupBoundaryConditions: Could not setup numerical thresholds
-9003- type_latticepoint_update: Could not generate lattice points
-9002- xtb_calculator_singlepoint: Electronic structure method terminated
-9001- scf: Setup of Coulomb evaluator failed
-9000- type_coulomb_setupBoundaryConditions: Could not setup numerical thresholds
-8999- type_latticepoint_update: Could not generate lattice points
-8998- xtb_calculator_singlepoint: Electronic structure method terminated
-8997- scf: Setup of Coulomb evaluator failed
-8996- type_coulomb_setupBoundaryConditions: Could not setup numerical thresholds
-8995- type_latticepoint_update: Could not generate lattice points
-8994- xtb_calculator_singlepoint: Electronic structure method terminated
-8993- scf: Setup of Coulomb evaluator failed
-8992- type_coulomb_setupBoundaryConditions: Could not setup numerical thresholds
-8991- type_latticepoint_update: Could not generate lattice points
-8990- xtb_calculator_singlepoint: Electronic structure method terminated
-8989- scf: Setup of Coulomb evaluator failed
-8988- type_coulomb_setupBoundaryConditions: Could not setup numerical thresholds
-8987- type_latticepoint_update: Could not generate lattice points
-8986- xtb_calculator_singlepoint: Electronic structure method terminated
-8985- scf: Setup of Coulomb evaluator failed
-8984- type_coulomb_setupBoundaryConditions: Could not setup numerical thresholds
-8983- type_latticepoint_update: Could not generate lattice points
-8982- xtb_calculator_singlepoint: Electronic structure method terminated
-8981- scf: Setup of Coulomb evaluator failed
-8980- type_coulomb_setupBoundaryConditions: Could not setup numerical thresholds
-8979- type_latticepoint_update: Could not generate lattice points
-8978- xtb_calculator_singlepoint: Electronic structure method terminated
-8977- scf: Setup of Coulomb evaluator failed
-8976- type_coulomb_setupBoundaryConditions: Could not setup numerical thresholds
-8975- type_latticepoint_update: Could not generate lattice points
-8974- xtb_calculator_singlepoint: Electronic structure method terminated
-8973- scf: Setup of Coulomb evaluator failed
-8972- type_coulomb_setupBoundaryConditions: Could not setup numerical thresholds
-8971- type_latticepoint_update: Could not generate lattice points
-8970- xtb_calculator_singlepoint: Electronic structure method terminated
-8969- scf: Setup of Coulomb evaluator failed
-8968- type_coulomb_setupBoundaryConditions: Could not setup numerical thresholds
-8967- type_latticepoint_update: Could not generate lattice points
-8966- xtb_calculator_singlepoint: Electronic structure method terminated
-8965- scf: Setup of Coulomb evaluator failed
-8964- type_coulomb_setupBoundaryConditions: Could not setup numerical thresholds
-8963- type_latticepoint_update: Could not generate lattice points
-8962- xtb_calculator_singlepoint: Electronic structure method terminated
-8961- scf: Setup of Coulomb evaluator failed
-8960- type_coulomb_setupBoundaryConditions: Could not setup numerical thresholds
-8959- type_latticepoint_update: Could not generate lattice points
-8958- xtb_calculator_singlepoint: Electronic structure method terminated
-8957- scf: Setup of Coulomb evaluator failed
-8956- type_coulomb_setupBoundaryConditions: Could not setup numerical thresholds
-8955- type_latticepoint_update: Could not generate lattice points
-8954- xtb_calculator_singlepoint: Electronic structure method terminated
-8953- scf: Setup of Coulomb evaluator failed
-8952- type_coulomb_setupBoundaryConditions: Could not setup numerical thresholds
-8951- type_latticepoint_update: Could not generate lattice points
-8950- xtb_calculator_singlepoint: Electronic structure method terminated
-8949- scf: Setup of Coulomb evaluator failed
-8948- type_coulomb_setupBoundaryConditions: Could not setup numerical thresholds
-8947- type_latticepoint_update: Could not generate lattice points
-8946- xtb_calculator_singlepoint: Electronic structure method terminated
-8945- scf: Setup of Coulomb evaluator failed
-8944- type_coulomb_setupBoundaryConditions: Could not setup numerical thresholds
-8943- type_latticepoint_update: Could not generate lattice points
-8942- xtb_calculator_singlepoint: Electronic structure method terminated
-8941- scf: Setup of Coulomb evaluator failed
-8940- type_coulomb_setupBoundaryConditions: Could not setup numerical thresholds
-8939- type_latticepoint_update: Could not generate lattice points
-8938- xtb_calculator_singlepoint: Electronic structure method terminated
-8937- scf: Setup of Coulomb evaluator failed
-8936- type_coulomb_setupBoundaryConditions: Could not setup numerical thresholds
-8935- type_latticepoint_update: Could not generate lattice points
-8934- xtb_calculator_singlepoint: Electronic structure method terminated
-8933- scf: Setup of Coulomb evaluator failed
-8932- type_coulomb_setupBoundaryConditions: Could not setup numerical thresholds
-8931- type_latticepoint_update: Could not generate lattice points
-8930- xtb_calculator_singlepoint: Electronic structure method terminated
-8929- scf: Setup of Coulomb evaluator failed
-8928- type_coulomb_setupBoundaryConditions: Could not setup numerical thresholds
-8927- type_latticepoint_update: Could not generate lattice points
-8926- xtb_calculator_singlepoint: Electronic structure method terminated
-8925- scf: Setup of Coulomb evaluator failed
-8924- type_coulomb_setupBoundaryConditions: Could not setup numerical thresholds
-8923- type_latticepoint_update: Could not generate lattice points
-8922- xtb_calculator_singlepoint: Electronic structure method terminated
-8921- scf: Setup of Coulomb evaluator failed
-8920- type_coulomb_setupBoundaryConditions: Could not setup numerical thresholds
-8919- type_latticepoint_update: Could not generate lattice points
-8918- xtb_calculator_singlepoint: Electronic structure method terminated
-8917- scf: Setup of Coulomb evaluator failed
-8916- type_coulomb_setupBoundaryConditions: Could not setup numerical thresholds
-8915- type_latticepoint_update: Could not generate lattice points
-8914- xtb_calculator_singlepoint: Electronic structure method terminated
-8913- scf: Setup of Coulomb evaluator failed
-8912- type_coulomb_setupBoundaryConditions: Could not setup numerical thresholds
-8911- type_latticepoint_update: Could not generate lattice points
-8910- xtb_calculator_singlepoint: Electronic structure method terminated
-8909- scf: Setup of Coulomb evaluator failed
-8908- type_coulomb_setupBoundaryConditions: Could not setup numerical thresholds
-8907- type_latticepoint_update: Could not generate lattice points
-8906- xtb_calculator_singlepoint: Electronic structure method terminated
-8905- scf: Setup of Coulomb evaluator failed
-8904- type_coulomb_setupBoundaryConditions: Could not setup numerical thresholds
-8903- type_latticepoint_update: Could not generate lattice points
-8902- xtb_calculator_singlepoint: Electronic structure method terminated
-8901- scf: Setup of Coulomb evaluator failed
-8900- type_coulomb_setupBoundaryConditions: Could not setup numerical thresholds
-8899- type_latticepoint_update: Could not generate lattice points
-8898- xtb_calculator_singlepoint: Electronic structure method terminated
-8897- scf: Setup of Coulomb evaluator failed
-8896- type_coulomb_setupBoundaryConditions: Could not setup numerical thresholds
-8895- type_latticepoint_update: Could not generate lattice points
-8894- xtb_calculator_singlepoint: Electronic structure method terminated
-8893- scf: Setup of Coulomb evaluator failed
-8892- type_coulomb_setupBoundaryConditions: Could not setup numerical thresholds
-8891- type_latticepoint_update: Could not generate lattice points
-8890- xtb_calculator_singlepoint: Electronic structure method terminated
-8889- scf: Setup of Coulomb evaluator failed
-8888- type_coulomb_setupBoundaryConditions: Could not setup numerical thresholds
-8887- type_latticepoint_update: Could not generate lattice points
-8886- xtb_calculator_singlepoint: Electronic structure method terminated
-8885- scf: Setup of Coulomb evaluator failed
-8884- type_coulomb_setupBoundaryConditions: Could not setup numerical thresholds
-8883- type_latticepoint_update: Could not generate lattice points
-8882- xtb_calculator_singlepoint: Electronic structure method terminated
-8881- scf: Setup of Coulomb evaluator failed
-8880- type_coulomb_setupBoundaryConditions: Could not setup numerical thresholds
-8879- type_latticepoint_update: Could not generate lattice points
-8878- xtb_calculator_singlepoint: Electronic structure method terminated
-8877- scf: Setup of Coulomb evaluator failed
-8876- type_coulomb_setupBoundaryConditions: Could not setup numerical thresholds
-8875- type_latticepoint_update: Could not generate lattice points
-8874- xtb_calculator_singlepoint: Electronic structure method terminated
-8873- scf: Setup of Coulomb evaluator failed
-8872- type_coulomb_setupBoundaryConditions: Could not setup numerical thresholds
-8871- type_latticepoint_update: Could not generate lattice points
-8870- xtb_calculator_singlepoint: Electronic structure method terminated
-8869- scf: Setup of Coulomb evaluator failed
-8868- type_coulomb_setupBoundaryConditions: Could not setup numerical thresholds
-8867- type_latticepoint_update: Could not generate lattice points
-8866- xtb_calculator_singlepoint: Electronic structure method terminated
-8865- scf: Setup of Coulomb evaluator failed
-8864- type_coulomb_setupBoundaryConditions: Could not setup numerical thresholds
-8863- type_latticepoint_update: Could not generate lattice points
-8862- xtb_calculator_singlepoint: Electronic structure method terminated
-8861- scf: Setup of Coulomb evaluator failed
-8860- type_coulomb_setupBoundaryConditions: Could not setup numerical thresholds
-8859- type_latticepoint_update: Could not generate lattice points
-8858- xtb_calculator_singlepoint: Electronic structure method terminated
-8857- scf: Setup of Coulomb evaluator failed
-8856- type_coulomb_setupBoundaryConditions: Could not setup numerical thresholds
-8855- type_latticepoint_update: Could not generate lattice points
-8854- xtb_calculator_singlepoint: Electronic structure method terminated
-8853- scf: Setup of Coulomb evaluator failed
-8852- type_coulomb_setupBoundaryConditions: Could not setup numerical thresholds
-8851- type_latticepoint_update: Could not generate lattice points
-8850- xtb_calculator_singlepoint: Electronic structure method terminated
-8849- scf: Setup of Coulomb evaluator failed
-8848- type_coulomb_setupBoundaryConditions: Could not setup numerical thresholds
-8847- type_latticepoint_update: Could not generate lattice points
-8846- xtb_calculator_singlepoint: Electronic structure method terminated
-8845- scf: Setup of Coulomb evaluator failed
-8844- type_coulomb_setupBoundaryConditions: Could not setup numerical thresholds
-8843- type_latticepoint_update: Could not generate lattice points
-8842- xtb_calculator_singlepoint: Electronic structure method terminated
-8841- scf: Setup of Coulomb evaluator failed
-8840- type_coulomb_setupBoundaryConditions: Could not setup numerical thresholds
-8839- type_latticepoint_update: Could not generate lattice points
-8838- xtb_calculator_singlepoint: Electronic structure method terminated
-8837- scf: Setup of Coulomb evaluator failed
-8836- type_coulomb_setupBoundaryConditions: Could not setup numerical thresholds
-8835- type_latticepoint_update: Could not generate lattice points
-8834- xtb_calculator_singlepoint: Electronic structure method terminated
-8833- scf: Setup of Coulomb evaluator failed
-8832- type_coulomb_setupBoundaryConditions: Could not setup numerical thresholds
-8831- type_latticepoint_update: Could not generate lattice points
-8830- xtb_calculator_singlepoint: Electronic structure method terminated
-8829- scf: Setup of Coulomb evaluator failed
-8828- type_coulomb_setupBoundaryConditions: Could not setup numerical thresholds
-8827- type_latticepoint_update: Could not generate lattice points
-8826- xtb_calculator_singlepoint: Electronic structure method terminated
-8825- scf: Setup of Coulomb evaluator failed
-8824- type_coulomb_setupBoundaryConditions: Could not setup numerical thresholds
-8823- type_latticepoint_update: Could not generate lattice points
-8822- xtb_calculator_singlepoint: Electronic structure method terminated
-8821- scf: Setup of Coulomb evaluator failed
-8820- type_coulomb_setupBoundaryConditions: Could not setup numerical thresholds
-8819- type_latticepoint_update: Could not generate lattice points
-8818- xtb_calculator_singlepoint: Electronic structure method terminated
-8817- scf: Setup of Coulomb evaluator failed
-8816- type_coulomb_setupBoundaryConditions: Could not setup numerical thresholds
-8815- type_latticepoint_update: Could not generate lattice points
-8814- xtb_calculator_singlepoint: Electronic structure method terminated
-8813- scf: Setup of Coulomb evaluator failed
-8812- type_coulomb_setupBoundaryConditions: Could not setup numerical thresholds
-8811- type_latticepoint_update: Could not generate lattice points
-8810- xtb_calculator_singlepoint: Electronic structure method terminated
-8809- scf: Setup of Coulomb evaluator failed
-8808- type_coulomb_setupBoundaryConditions: Could not setup numerical thresholds
-8807- type_latticepoint_update: Could not generate lattice points
-8806- xtb_calculator_singlepoint: Electronic structure method terminated
-8805- scf: Setup of Coulomb evaluator failed
-8804- type_coulomb_setupBoundaryConditions: Could not setup numerical thresholds
-8803- type_latticepoint_update: Could not generate lattice points
-8802- xtb_calculator_singlepoint: Electronic structure method terminated
-8801- scf: Setup of Coulomb evaluator failed
-8800- type_coulomb_setupBoundaryConditions: Could not setup numerical thresholds
-8799- type_latticepoint_update: Could not generate lattice points
-8798- xtb_calculator_singlepoint: Electronic structure method terminated
-8797- scf: Setup of Coulomb evaluator failed
-8796- type_coulomb_setupBoundaryConditions: Could not setup numerical thresholds
-8795- type_latticepoint_update: Could not generate lattice points
-8794- xtb_calculator_singlepoint: Electronic structure method terminated
-8793- scf: Setup of Coulomb evaluator failed
-8792- type_coulomb_setupBoundaryConditions: Could not setup numerical thresholds
-8791- type_latticepoint_update: Could not generate lattice points
-8790- xtb_calculator_singlepoint: Electronic structure method terminated
-8789- scf: Setup of Coulomb evaluator failed
-8788- type_coulomb_setupBoundaryConditions: Could not setup numerical thresholds
-8787- type_latticepoint_update: Could not generate lattice points
-8786- xtb_calculator_singlepoint: Electronic structure method terminated
-8785- scf: Setup of Coulomb evaluator failed
-8784- type_coulomb_setupBoundaryConditions: Could not setup numerical thresholds
-8783- type_latticepoint_update: Could not generate lattice points
-8782- xtb_calculator_singlepoint: Electronic structure method terminated
-8781- scf: Setup of Coulomb evaluator failed
-8780- type_coulomb_setupBoundaryConditions: Could not setup numerical thresholds
-8779- type_latticepoint_update: Could not generate lattice points
-8778- xtb_calculator_singlepoint: Electronic structure method terminated
-8777- scf: Setup of Coulomb evaluator failed
-8776- type_coulomb_setupBoundaryConditions: Could not setup numerical thresholds
-8775- type_latticepoint_update: Could not generate lattice points
-8774- xtb_calculator_singlepoint: Electronic structure method terminated
-8773- scf: Setup of Coulomb evaluator failed
-8772- type_coulomb_setupBoundaryConditions: Could not setup numerical thresholds
-8771- type_latticepoint_update: Could not generate lattice points
-8770- xtb_calculator_singlepoint: Electronic structure method terminated
-8769- scf: Setup of Coulomb evaluator failed
-8768- type_coulomb_setupBoundaryConditions: Could not setup numerical thresholds
-8767- type_latticepoint_update: Could not generate lattice points
-8766- xtb_calculator_singlepoint: Electronic structure method terminated
-8765- scf: Setup of Coulomb evaluator failed
-8764- type_coulomb_setupBoundaryConditions: Could not setup numerical thresholds
-8763- type_latticepoint_update: Could not generate lattice points
-8762- xtb_calculator_singlepoint: Electronic structure method terminated
-8761- scf: Setup of Coulomb evaluator failed
-8760- type_coulomb_setupBoundaryConditions: Could not setup numerical thresholds
-8759- type_latticepoint_update: Could not generate lattice points
-8758- xtb_calculator_singlepoint: Electronic structure method terminated
-8757- scf: Setup of Coulomb evaluator failed
-8756- type_coulomb_setupBoundaryConditions: Could not setup numerical thresholds
-8755- type_latticepoint_update: Could not generate lattice points
-8754- xtb_calculator_singlepoint: Electronic structure method terminated
-8753- scf: Setup of Coulomb evaluator failed
-8752- type_coulomb_setupBoundaryConditions: Could not setup numerical thresholds
-8751- type_latticepoint_update: Could not generate lattice points
-8750- xtb_calculator_singlepoint: Electronic structure method terminated
-8749- scf: Setup of Coulomb evaluator failed
-8748- type_coulomb_setupBoundaryConditions: Could not setup numerical thresholds
-8747- type_latticepoint_update: Could not generate lattice points
-8746- xtb_calculator_singlepoint: Electronic structure method terminated
-8745- scf: Setup of Coulomb evaluator failed
-8744- type_coulomb_setupBoundaryConditions: Could not setup numerical thresholds
-8743- type_latticepoint_update: Could not generate lattice points
-8742- xtb_calculator_singlepoint: Electronic structure method terminated
-8741- scf: Setup of Coulomb evaluator failed
-8740- type_coulomb_setupBoundaryConditions: Could not setup numerical thresholds
-8739- type_latticepoint_update: Could not generate lattice points
-8738- xtb_calculator_singlepoint: Electronic structure method terminated
-8737- scf: Setup of Coulomb evaluator failed
-8736- type_coulomb_setupBoundaryConditions: Could not setup numerical thresholds
-8735- type_latticepoint_update: Could not generate lattice points
-8734- xtb_calculator_singlepoint: Electronic structure method terminated
-8733- scf: Setup of Coulomb evaluator failed
-8732- type_coulomb_setupBoundaryConditions: Could not setup numerical thresholds
-8731- type_latticepoint_update: Could not generate lattice points
-8730- xtb_calculator_singlepoint: Electronic structure method terminated
-8729- scf: Setup of Coulomb evaluator failed
-8728- type_coulomb_setupBoundaryConditions: Could not setup numerical thresholds
-8727- type_latticepoint_update: Could not generate lattice points
-8726- xtb_calculator_singlepoint: Electronic structure method terminated
-8725- scf: Setup of Coulomb evaluator failed
-8724- type_coulomb_setupBoundaryConditions: Could not setup numerical thresholds
-8723- type_latticepoint_update: Could not generate lattice points
-8722- xtb_calculator_singlepoint: Electronic structure method terminated
-8721- scf: Setup of Coulomb evaluator failed
-8720- type_coulomb_setupBoundaryConditions: Could not setup numerical thresholds
-8719- type_latticepoint_update: Could not generate lattice points
-8718- xtb_calculator_singlepoint: Electronic structure method terminated
-8717- scf: Setup of Coulomb evaluator failed
-8716- type_coulomb_setupBoundaryConditions: Could not setup numerical thresholds
-8715- type_latticepoint_update: Could not generate lattice points
-8714- xtb_calculator_singlepoint: Electronic structure method terminated
-8713- scf: Setup of Coulomb evaluator failed
-8712- type_coulomb_setupBoundaryConditions: Could not setup numerical thresholds
-8711- type_latticepoint_update: Could not generate lattice points
-8710- xtb_calculator_singlepoint: Electronic structure method terminated
-8709- scf: Setup of Coulomb evaluator failed
-8708- type_coulomb_setupBoundaryConditions: Could not setup numerical thresholds
-8707- type_latticepoint_update: Could not generate lattice points
-8706- xtb_calculator_singlepoint: Electronic structure method terminated
-8705- scf: Setup of Coulomb evaluator failed
-8704- type_coulomb_setupBoundaryConditions: Could not setup numerical thresholds
-8703- type_latticepoint_update: Could not generate lattice points
-8702- xtb_calculator_singlepoint: Electronic structure method terminated
-8701- scf: Setup of Coulomb evaluator failed
-8700- type_coulomb_setupBoundaryConditions: Could not setup numerical thresholds
-8699- type_latticepoint_update: Could not generate lattice points
-8698- xtb_calculator_singlepoint: Electronic structure method terminated
-8697- scf: Setup of Coulomb evaluator failed
-8696- type_coulomb_setupBoundaryConditions: Could not setup numerical thresholds
-8695- type_latticepoint_update: Could not generate lattice points
-8694- xtb_calculator_singlepoint: Electronic structure method terminated
-8693- scf: Setup of Coulomb evaluator failed
-8692- type_coulomb_setupBoundaryConditions: Could not setup numerical thresholds
-8691- type_latticepoint_update: Could not generate lattice points
-8690- xtb_calculator_singlepoint: Electronic structure method terminated
-8689- scf: Setup of Coulomb evaluator failed
-8688- type_coulomb_setupBoundaryConditions: Could not setup numerical thresholds
-8687- type_latticepoint_update: Could not generate lattice points
-8686- xtb_calculator_singlepoint: Electronic structure method terminated
-8685- scf: Setup of Coulomb evaluator failed
-8684- type_coulomb_setupBoundaryConditions: Could not setup numerical thresholds
-8683- type_latticepoint_update: Could not generate lattice points
-8682- xtb_calculator_singlepoint: Electronic structure method terminated
-8681- scf: Setup of Coulomb evaluator failed
-8680- type_coulomb_setupBoundaryConditions: Could not setup numerical thresholds
-8679- type_latticepoint_update: Could not generate lattice points
-8678- xtb_calculator_singlepoint: Electronic structure method terminated
-8677- scf: Setup of Coulomb evaluator failed
-8676- type_coulomb_setupBoundaryConditions: Could not setup numerical thresholds
-8675- type_latticepoint_update: Could not generate lattice points
-8674- xtb_calculator_singlepoint: Electronic structure method terminated
-8673- scf: Setup of Coulomb evaluator failed
-8672- type_coulomb_setupBoundaryConditions: Could not setup numerical thresholds
-8671- type_latticepoint_update: Could not generate lattice points
-8670- xtb_calculator_singlepoint: Electronic structure method terminated
-8669- scf: Setup of Coulomb evaluator failed
-8668- type_coulomb_setupBoundaryConditions: Could not setup numerical thresholds
-8667- type_latticepoint_update: Could not generate lattice points
-8666- xtb_calculator_singlepoint: Electronic structure method terminated
-8665- scf: Setup of Coulomb evaluator failed
-8664- type_coulomb_setupBoundaryConditions: Could not setup numerical thresholds
-8663- type_latticepoint_update: Could not generate lattice points
-8662- xtb_calculator_singlepoint: Electronic structure method terminated
-8661- scf: Setup of Coulomb evaluator failed
-8660- type_coulomb_setupBoundaryConditions: Could not setup numerical thresholds
-8659- type_latticepoint_update: Could not generate lattice points
-8658- xtb_calculator_singlepoint: Electronic structure method terminated
-8657- scf: Setup of Coulomb evaluator failed
-8656- type_coulomb_setupBoundaryConditions: Could not setup numerical thresholds
-8655- type_latticepoint_update: Could not generate lattice points
-8654- xtb_calculator_singlepoint: Electronic structure method terminated
-8653- scf: Setup of Coulomb evaluator failed
-8652- type_coulomb_setupBoundaryConditions: Could not setup numerical thresholds
-8651- type_latticepoint_update: Could not generate lattice points
-8650- xtb_calculator_singlepoint: Electronic structure method terminated
-8649- scf: Setup of Coulomb evaluator failed
-8648- type_coulomb_setupBoundaryConditions: Could not setup numerical thresholds
-8647- type_latticepoint_update: Could not generate lattice points
-8646- xtb_calculator_singlepoint: Electronic structure method terminated
-8645- scf: Setup of Coulomb evaluator failed
-8644- type_coulomb_setupBoundaryConditions: Could not setup numerical thresholds
-8643- type_latticepoint_update: Could not generate lattice points
-8642- xtb_calculator_singlepoint: Electronic structure method terminated
-8641- scf: Setup of Coulomb evaluator failed
-8640- type_coulomb_setupBoundaryConditions: Could not setup numerical thresholds
-8639- type_latticepoint_update: Could not generate lattice points
-8638- xtb_calculator_singlepoint: Electronic structure method terminated
-8637- scf: Setup of Coulomb evaluator failed
-8636- type_coulomb_setupBoundaryConditions: Could not setup numerical thresholds
-8635- type_latticepoint_update: Could not generate lattice points
-8634- xtb_calculator_singlepoint: Electronic structure method terminated
-8633- scf: Setup of Coulomb evaluator failed
-8632- type_coulomb_setupBoundaryConditions: Could not setup numerical thresholds
-8631- type_latticepoint_update: Could not generate lattice points
-8630- xtb_calculator_singlepoint: Electronic structure method terminated
-8629- scf: Setup of Coulomb evaluator failed
-8628- type_coulomb_setupBoundaryConditions: Could not setup numerical thresholds
-8627- type_latticepoint_update: Could not generate lattice points
-8626- xtb_calculator_singlepoint: Electronic structure method terminated
-8625- scf: Setup of Coulomb evaluator failed
-8624- type_coulomb_setupBoundaryConditions: Could not setup numerical thresholds
-8623- type_latticepoint_update: Could not generate lattice points
-8622- xtb_calculator_singlepoint: Electronic structure method terminated
-8621- scf: Setup of Coulomb evaluator failed
-8620- type_coulomb_setupBoundaryConditions: Could not setup numerical thresholds
-8619- type_latticepoint_update: Could not generate lattice points
-8618- xtb_calculator_singlepoint: Electronic structure method terminated
-8617- scf: Setup of Coulomb evaluator failed
-8616- type_coulomb_setupBoundaryConditions: Could not setup numerical thresholds
-8615- type_latticepoint_update: Could not generate lattice points
-8614- xtb_calculator_singlepoint: Electronic structure method terminated
-8613- scf: Setup of Coulomb evaluator failed
-8612- type_coulomb_setupBoundaryConditions: Could not setup numerical thresholds
-8611- type_latticepoint_update: Could not generate lattice points
-8610- xtb_calculator_singlepoint: Electronic structure method terminated
-8609- scf: Setup of Coulomb evaluator failed
-8608- type_coulomb_setupBoundaryConditions: Could not setup numerical thresholds
-8607- type_latticepoint_update: Could not generate lattice points
-8606- xtb_calculator_singlepoint: Electronic structure method terminated
-8605- scf: Setup of Coulomb evaluator failed
-8604- type_coulomb_setupBoundaryConditions: Could not setup numerical thresholds
-8603- type_latticepoint_update: Could not generate lattice points
-8602- xtb_calculator_singlepoint: Electronic structure method terminated
-8601- scf: Setup of Coulomb evaluator failed
-8600- type_coulomb_setupBoundaryConditions: Could not setup numerical thresholds
-8599- type_latticepoint_update: Could not generate lattice points
-8598- xtb_calculator_singlepoint: Electronic structure method terminated
-8597- scf: Setup of Coulomb evaluator failed
-8596- type_coulomb_setupBoundaryConditions: Could not setup numerical thresholds
-8595- type_latticepoint_update: Could not generate lattice points
-8594- xtb_calculator_singlepoint: Electronic structure method terminated
-8593- scf: Setup of Coulomb evaluator failed
-8592- type_coulomb_setupBoundaryConditions: Could not setup numerical thresholds
-8591- type_latticepoint_update: Could not generate lattice points
-8590- xtb_calculator_singlepoint: Electronic structure method terminated
-8589- scf: Setup of Coulomb evaluator failed
-8588- type_coulomb_setupBoundaryConditions: Could not setup numerical thresholds
-8587- type_latticepoint_update: Could not generate lattice points
-8586- xtb_calculator_singlepoint: Electronic structure method terminated
-8585- scf: Setup of Coulomb evaluator failed
-8584- type_coulomb_setupBoundaryConditions: Could not setup numerical thresholds
-8583- type_latticepoint_update: Could not generate lattice points
-8582- xtb_calculator_singlepoint: Electronic structure method terminated
-8581- scf: Setup of Coulomb evaluator failed
-8580- type_coulomb_setupBoundaryConditions: Could not setup numerical thresholds
-8579- type_latticepoint_update: Could not generate lattice points
-8578- xtb_calculator_singlepoint: Electronic structure method terminated
-8577- scf: Setup of Coulomb evaluator failed
-8576- type_coulomb_setupBoundaryConditions: Could not setup numerical thresholds
-8575- type_latticepoint_update: Could not generate lattice points
-8574- xtb_calculator_singlepoint: Electronic structure method terminated
-8573- scf: Setup of Coulomb evaluator failed
-8572- type_coulomb_setupBoundaryConditions: Could not setup numerical thresholds
-8571- type_latticepoint_update: Could not generate lattice points
-8570- xtb_calculator_singlepoint: Electronic structure method terminated
-8569- scf: Setup of Coulomb evaluator failed
-8568- type_coulomb_setupBoundaryConditions: Could not setup numerical thresholds
-8567- type_latticepoint_update: Could not generate lattice points
-8566- xtb_calculator_singlepoint: Electronic structure method terminated
-8565- scf: Setup of Coulomb evaluator failed
-8564- type_coulomb_setupBoundaryConditions: Could not setup numerical thresholds
-8563- type_latticepoint_update: Could not generate lattice points
-8562- xtb_calculator_singlepoint: Electronic structure method terminated
-8561- scf: Setup of Coulomb evaluator failed
-8560- type_coulomb_setupBoundaryConditions: Could not setup numerical thresholds
-8559- type_latticepoint_update: Could not generate lattice points
-8558- xtb_calculator_singlepoint: Electronic structure method terminated
-8557- scf: Setup of Coulomb evaluator failed
-8556- type_coulomb_setupBoundaryConditions: Could not setup numerical thresholds
-8555- type_latticepoint_update: Could not generate lattice points
-8554- xtb_calculator_singlepoint: Electronic structure method terminated
-8553- scf: Setup of Coulomb evaluator failed
-8552- type_coulomb_setupBoundaryConditions: Could not setup numerical thresholds
-8551- type_latticepoint_update: Could not generate lattice points
-8550- xtb_calculator_singlepoint: Electronic structure method terminated
-8549- scf: Setup of Coulomb evaluator failed
-8548- type_coulomb_setupBoundaryConditions: Could not setup numerical thresholds
-8547- type_latticepoint_update: Could not generate lattice points
-8546- xtb_calculator_singlepoint: Electronic structure method terminated
-8545- scf: Setup of Coulomb evaluator failed
-8544- type_coulomb_setupBoundaryConditions: Could not setup numerical thresholds
-8543- type_latticepoint_update: Could not generate lattice points
-8542- xtb_calculator_singlepoint: Electronic structure method terminated
-8541- scf: Setup of Coulomb evaluator failed
-8540- type_coulomb_setupBoundaryConditions: Could not setup numerical thresholds
-8539- type_latticepoint_update: Could not generate lattice points
-8538- xtb_calculator_singlepoint: Electronic structure method terminated
-8537- scf: Setup of Coulomb evaluator failed
-8536- type_coulomb_setupBoundaryConditions: Could not setup numerical thresholds
-8535- type_latticepoint_update: Could not generate lattice points
-8534- xtb_calculator_singlepoint: Electronic structure method terminated
-8533- scf: Setup of Coulomb evaluator failed
-8532- type_coulomb_setupBoundaryConditions: Could not setup numerical thresholds
-8531- type_latticepoint_update: Could not generate lattice points
-8530- xtb_calculator_singlepoint: Electronic structure method terminated
-8529- scf: Setup of Coulomb evaluator failed
-8528- type_coulomb_setupBoundaryConditions: Could not setup numerical thresholds
-8527- type_latticepoint_update: Could not generate lattice points
-8526- xtb_calculator_singlepoint: Electronic structure method terminated
-8525- scf: Setup of Coulomb evaluator failed
-8524- type_coulomb_setupBoundaryConditions: Could not setup numerical thresholds
-8523- type_latticepoint_update: Could not generate lattice points
-8522- xtb_calculator_singlepoint: Electronic structure method terminated
-8521- scf: Setup of Coulomb evaluator failed
-8520- type_coulomb_setupBoundaryConditions: Could not setup numerical thresholds
-8519- type_latticepoint_update: Could not generate lattice points
-8518- xtb_calculator_singlepoint: Electronic structure method terminated
-8517- scf: Setup of Coulomb evaluator failed
-8516- type_coulomb_setupBoundaryConditions: Could not setup numerical thresholds
-8515- type_latticepoint_update: Could not generate lattice points
-8514- xtb_calculator_singlepoint: Electronic structure method terminated
-8513- scf: Setup of Coulomb evaluator failed
-8512- type_coulomb_setupBoundaryConditions: Could not setup numerical thresholds
-8511- type_latticepoint_update: Could not generate lattice points
-8510- xtb_calculator_singlepoint: Electronic structure method terminated
-8509- scf: Setup of Coulomb evaluator failed
-8508- type_coulomb_setupBoundaryConditions: Could not setup numerical thresholds
-8507- type_latticepoint_update: Could not generate lattice points
-8506- xtb_calculator_singlepoint: Electronic structure method terminated
-8505- scf: Setup of Coulomb evaluator failed
-8504- type_coulomb_setupBoundaryConditions: Could not setup numerical thresholds
-8503- type_latticepoint_update: Could not generate lattice points
-8502- xtb_calculator_singlepoint: Electronic structure method terminated
-8501- scf: Setup of Coulomb evaluator failed
-8500- type_coulomb_setupBoundaryConditions: Could not setup numerical thresholds
-8499- type_latticepoint_update: Could not generate lattice points
-8498- xtb_calculator_singlepoint: Electronic structure method terminated
-8497- scf: Setup of Coulomb evaluator failed
-8496- type_coulomb_setupBoundaryConditions: Could not setup numerical thresholds
-8495- type_latticepoint_update: Could not generate lattice points
-8494- xtb_calculator_singlepoint: Electronic structure method terminated
-8493- scf: Setup of Coulomb evaluator failed
-8492- type_coulomb_setupBoundaryConditions: Could not setup numerical thresholds
-8491- type_latticepoint_update: Could not generate lattice points
-8490- xtb_calculator_singlepoint: Electronic structure method terminated
-8489- scf: Setup of Coulomb evaluator failed
-8488- type_coulomb_setupBoundaryConditions: Could not setup numerical thresholds
-8487- type_latticepoint_update: Could not generate lattice points
-8486- xtb_calculator_singlepoint: Electronic structure method terminated
-8485- scf: Setup of Coulomb evaluator failed
-8484- type_coulomb_setupBoundaryConditions: Could not setup numerical thresholds
-8483- type_latticepoint_update: Could not generate lattice points
-8482- xtb_calculator_singlepoint: Electronic structure method terminated
-8481- scf: Setup of Coulomb evaluator failed
-8480- type_coulomb_setupBoundaryConditions: Could not setup numerical thresholds
-8479- type_latticepoint_update: Could not generate lattice points
-8478- xtb_calculator_singlepoint: Electronic structure method terminated
-8477- scf: Setup of Coulomb evaluator failed
-8476- type_coulomb_setupBoundaryConditions: Could not setup numerical thresholds
-8475- type_latticepoint_update: Could not generate lattice points
-8474- xtb_calculator_singlepoint: Electronic structure method terminated
-8473- scf: Setup of Coulomb evaluator failed
-8472- type_coulomb_setupBoundaryConditions: Could not setup numerical thresholds
-8471- type_latticepoint_update: Could not generate lattice points
-8470- xtb_calculator_singlepoint: Electronic structure method terminated
-8469- scf: Setup of Coulomb evaluator failed
-8468- type_coulomb_setupBoundaryConditions: Could not setup numerical thresholds
-8467- type_latticepoint_update: Could not generate lattice points
-8466- xtb_calculator_singlepoint: Electronic structure method terminated
-8465- scf: Setup of Coulomb evaluator failed
-8464- type_coulomb_setupBoundaryConditions: Could not setup numerical thresholds
-8463- type_latticepoint_update: Could not generate lattice points
-8462- xtb_calculator_singlepoint: Electronic structure method terminated
-8461- scf: Setup of Coulomb evaluator failed
-8460- type_coulomb_setupBoundaryConditions: Could not setup numerical thresholds
-8459- type_latticepoint_update: Could not generate lattice points
-8458- xtb_calculator_singlepoint: Electronic structure method terminated
-8457- scf: Setup of Coulomb evaluator failed
-8456- type_coulomb_setupBoundaryConditions: Could not setup numerical thresholds
-8455- type_latticepoint_update: Could not generate lattice points
-8454- xtb_calculator_singlepoint: Electronic structure method terminated
-8453- scf: Setup of Coulomb evaluator failed
-8452- type_coulomb_setupBoundaryConditions: Could not setup numerical thresholds
-8451- type_latticepoint_update: Could not generate lattice points
-8450- xtb_calculator_singlepoint: Electronic structure method terminated
-8449- scf: Setup of Coulomb evaluator failed
-8448- type_coulomb_setupBoundaryConditions: Could not setup numerical thresholds
-8447- type_latticepoint_update: Could not generate lattice points
-8446- xtb_calculator_singlepoint: Electronic structure method terminated
-8445- scf: Setup of Coulomb evaluator failed
-8444- type_coulomb_setupBoundaryConditions: Could not setup numerical thresholds
-8443- type_latticepoint_update: Could not generate lattice points
-8442- xtb_calculator_singlepoint: Electronic structure method terminated
-8441- scf: Setup of Coulomb evaluator failed
-8440- type_coulomb_setupBoundaryConditions: Could not setup numerical thresholds
-8439- type_latticepoint_update: Could not generate lattice points
-8438- xtb_calculator_singlepoint: Electronic structure method terminated
-8437- scf: Setup of Coulomb evaluator failed
-8436- type_coulomb_setupBoundaryConditions: Could not setup numerical thresholds
-8435- type_latticepoint_update: Could not generate lattice points
-8434- xtb_calculator_singlepoint: Electronic structure method terminated
-8433- scf: Setup of Coulomb evaluator failed
-8432- type_coulomb_setupBoundaryConditions: Could not setup numerical thresholds
-8431- type_latticepoint_update: Could not generate lattice points
-8430- xtb_calculator_singlepoint: Electronic structure method terminated
-8429- scf: Setup of Coulomb evaluator failed
-8428- type_coulomb_setupBoundaryConditions: Could not setup numerical thresholds
-8427- type_latticepoint_update: Could not generate lattice points
-8426- xtb_calculator_singlepoint: Electronic structure method terminated
-8425- scf: Setup of Coulomb evaluator failed
-8424- type_coulomb_setupBoundaryConditions: Could not setup numerical thresholds
-8423- type_latticepoint_update: Could not generate lattice points
-8422- xtb_calculator_singlepoint: Electronic structure method terminated
-8421- scf: Setup of Coulomb evaluator failed
-8420- type_coulomb_setupBoundaryConditions: Could not setup numerical thresholds
-8419- type_latticepoint_update: Could not generate lattice points
-8418- xtb_calculator_singlepoint: Electronic structure method terminated
-8417- scf: Setup of Coulomb evaluator failed
-8416- type_coulomb_setupBoundaryConditions: Could not setup numerical thresholds
-8415- type_latticepoint_update: Could not generate lattice points
-8414- xtb_calculator_singlepoint: Electronic structure method terminated
-8413- scf: Setup of Coulomb evaluator failed
-8412- type_coulomb_setupBoundaryConditions: Could not setup numerical thresholds
-8411- type_latticepoint_update: Could not generate lattice points
-8410- xtb_calculator_singlepoint: Electronic structure method terminated
-8409- scf: Setup of Coulomb evaluator failed
-8408- type_coulomb_setupBoundaryConditions: Could not setup numerical thresholds
-8407- type_latticepoint_update: Could not generate lattice points
-8406- xtb_calculator_singlepoint: Electronic structure method terminated
-8405- scf: Setup of Coulomb evaluator failed
-8404- type_coulomb_setupBoundaryConditions: Could not setup numerical thresholds
-8403- type_latticepoint_update: Could not generate lattice points
-8402- xtb_calculator_singlepoint: Electronic structure method terminated
-8401- scf: Setup of Coulomb evaluator failed
-8400- type_coulomb_setupBoundaryConditions: Could not setup numerical thresholds
-8399- type_latticepoint_update: Could not generate lattice points
-8398- xtb_calculator_singlepoint: Electronic structure method terminated
-8397- scf: Setup of Coulomb evaluator failed
-8396- type_coulomb_setupBoundaryConditions: Could not setup numerical thresholds
-8395- type_latticepoint_update: Could not generate lattice points
-8394- xtb_calculator_singlepoint: Electronic structure method terminated
-8393- scf: Setup of Coulomb evaluator failed
-8392- type_coulomb_setupBoundaryConditions: Could not setup numerical thresholds
-8391- type_latticepoint_update: Could not generate lattice points
-8390- xtb_calculator_singlepoint: Electronic structure method terminated
-8389- scf: Setup of Coulomb evaluator failed
-8388- type_coulomb_setupBoundaryConditions: Could not setup numerical thresholds
-8387- type_latticepoint_update: Could not generate lattice points
-8386- xtb_calculator_singlepoint: Electronic structure method terminated
-8385- scf: Setup of Coulomb evaluator failed
-8384- type_coulomb_setupBoundaryConditions: Could not setup numerical thresholds
-8383- type_latticepoint_update: Could not generate lattice points
-8382- xtb_calculator_singlepoint: Electronic structure method terminated
-8381- scf: Setup of Coulomb evaluator failed
-8380- type_coulomb_setupBoundaryConditions: Could not setup numerical thresholds
-8379- type_latticepoint_update: Could not generate lattice points
-8378- xtb_calculator_singlepoint: Electronic structure method terminated
-8377- scf: Setup of Coulomb evaluator failed
-8376- type_coulomb_setupBoundaryConditions: Could not setup numerical thresholds
-8375- type_latticepoint_update: Could not generate lattice points
-8374- xtb_calculator_singlepoint: Electronic structure method terminated
-8373- scf: Setup of Coulomb evaluator failed
-8372- type_coulomb_setupBoundaryConditions: Could not setup numerical thresholds
-8371- type_latticepoint_update: Could not generate lattice points
-8370- xtb_calculator_singlepoint: Electronic structure method terminated
-8369- scf: Setup of Coulomb evaluator failed
-8368- type_coulomb_setupBoundaryConditions: Could not setup numerical thresholds
-8367- type_latticepoint_update: Could not generate lattice points
-8366- xtb_calculator_singlepoint: Electronic structure method terminated
-8365- scf: Setup of Coulomb evaluator failed
-8364- type_coulomb_setupBoundaryConditions: Could not setup numerical thresholds
-8363- type_latticepoint_update: Could not generate lattice points
-8362- xtb_calculator_singlepoint: Electronic structure method terminated
-8361- scf: Setup of Coulomb evaluator failed
-8360- type_coulomb_setupBoundaryConditions: Could not setup numerical thresholds
-8359- type_latticepoint_update: Could not generate lattice points
-8358- xtb_calculator_singlepoint: Electronic structure method terminated
-8357- scf: Setup of Coulomb evaluator failed
-8356- type_coulomb_setupBoundaryConditions: Could not setup numerical thresholds
-8355- type_latticepoint_update: Could not generate lattice points
-8354- xtb_calculator_singlepoint: Electronic structure method terminated
-8353- scf: Setup of Coulomb evaluator failed
-8352- type_coulomb_setupBoundaryConditions: Could not setup numerical thresholds
-8351- type_latticepoint_update: Could not generate lattice points
-8350- xtb_calculator_singlepoint: Electronic structure method terminated
-8349- scf: Setup of Coulomb evaluator failed
-8348- type_coulomb_setupBoundaryConditions: Could not setup numerical thresholds
-8347- type_latticepoint_update: Could not generate lattice points
-8346- xtb_calculator_singlepoint: Electronic structure method terminated
-8345- scf: Setup of Coulomb evaluator failed
-8344- type_coulomb_setupBoundaryConditions: Could not setup numerical thresholds
-8343- type_latticepoint_update: Could not generate lattice points
-8342- xtb_calculator_singlepoint: Electronic structure method terminated
-8341- scf: Setup of Coulomb evaluator failed
-8340- type_coulomb_setupBoundaryConditions: Could not setup numerical thresholds
-8339- type_latticepoint_update: Could not generate lattice points
-8338- xtb_calculator_singlepoint: Electronic structure method terminated
-8337- scf: Setup of Coulomb evaluator failed
-8336- type_coulomb_setupBoundaryConditions: Could not setup numerical thresholds
-8335- type_latticepoint_update: Could not generate lattice points
-8334- xtb_calculator_singlepoint: Electronic structure method terminated
-8333- scf: Setup of Coulomb evaluator failed
-8332- type_coulomb_setupBoundaryConditions: Could not setup numerical thresholds
-8331- type_latticepoint_update: Could not generate lattice points
-8330- xtb_calculator_singlepoint: Electronic structure method terminated
-8329- scf: Setup of Coulomb evaluator failed
-8328- type_coulomb_setupBoundaryConditions: Could not setup numerical thresholds
-8327- type_latticepoint_update: Could not generate lattice points
-8326- xtb_calculator_singlepoint: Electronic structure method terminated
-8325- scf: Setup of Coulomb evaluator failed
-8324- type_coulomb_setupBoundaryConditions: Could not setup numerical thresholds
-8323- type_latticepoint_update: Could not generate lattice points
-8322- xtb_calculator_singlepoint: Electronic structure method terminated
-8321- scf: Setup of Coulomb evaluator failed
-8320- type_coulomb_setupBoundaryConditions: Could not setup numerical thresholds
-8319- type_latticepoint_update: Could not generate lattice points
-8318- xtb_calculator_singlepoint: Electronic structure method terminated
-8317- scf: Setup of Coulomb evaluator failed
-8316- type_coulomb_setupBoundaryConditions: Could not setup numerical thresholds
-8315- type_latticepoint_update: Could not generate lattice points
-8314- xtb_calculator_singlepoint: Electronic structure method terminated
-8313- scf: Setup of Coulomb evaluator failed
-8312- type_coulomb_setupBoundaryConditions: Could not setup numerical thresholds
-8311- type_latticepoint_update: Could not generate lattice points
-8310- xtb_calculator_singlepoint: Electronic structure method terminated
-8309- scf: Setup of Coulomb evaluator failed
-8308- type_coulomb_setupBoundaryConditions: Could not setup numerical thresholds
-8307- type_latticepoint_update: Could not generate lattice points
-8306- xtb_calculator_singlepoint: Electronic structure method terminated
-8305- scf: Setup of Coulomb evaluator failed
-8304- type_coulomb_setupBoundaryConditions: Could not setup numerical thresholds
-8303- type_latticepoint_update: Could not generate lattice points
-8302- xtb_calculator_singlepoint: Electronic structure method terminated
-8301- scf: Setup of Coulomb evaluator failed
-8300- type_coulomb_setupBoundaryConditions: Could not setup numerical thresholds
-8299- type_latticepoint_update: Could not generate lattice points
-8298- xtb_calculator_singlepoint: Electronic structure method terminated
-8297- scf: Setup of Coulomb evaluator failed
-8296- type_coulomb_setupBoundaryConditions: Could not setup numerical thresholds
-8295- type_latticepoint_update: Could not generate lattice points
-8294- xtb_calculator_singlepoint: Electronic structure method terminated
-8293- scf: Setup of Coulomb evaluator failed
-8292- type_coulomb_setupBoundaryConditions: Could not setup numerical thresholds
-8291- type_latticepoint_update: Could not generate lattice points
-8290- xtb_calculator_singlepoint: Electronic structure method terminated
-8289- scf: Setup of Coulomb evaluator failed
-8288- type_coulomb_setupBoundaryConditions: Could not setup numerical thresholds
-8287- type_latticepoint_update: Could not generate lattice points
-8286- xtb_calculator_singlepoint: Electronic structure method terminated
-8285- scf: Setup of Coulomb evaluator failed
-8284- type_coulomb_setupBoundaryConditions: Could not setup numerical thresholds
-8283- type_latticepoint_update: Could not generate lattice points
-8282- xtb_calculator_singlepoint: Electronic structure method terminated
-8281- scf: Setup of Coulomb evaluator failed
-8280- type_coulomb_setupBoundaryConditions: Could not setup numerical thresholds
-8279- type_latticepoint_update: Could not generate lattice points
-8278- xtb_calculator_singlepoint: Electronic structure method terminated
-8277- scf: Setup of Coulomb evaluator failed
-8276- type_coulomb_setupBoundaryConditions: Could not setup numerical thresholds
-8275- type_latticepoint_update: Could not generate lattice points
-8274- xtb_calculator_singlepoint: Electronic structure method terminated
-8273- scf: Setup of Coulomb evaluator failed
-8272- type_coulomb_setupBoundaryConditions: Could not setup numerical thresholds
-8271- type_latticepoint_update: Could not generate lattice points
-8270- xtb_calculator_singlepoint: Electronic structure method terminated
-8269- scf: Setup of Coulomb evaluator failed
-8268- type_coulomb_setupBoundaryConditions: Could not setup numerical thresholds
-8267- type_latticepoint_update: Could not generate lattice points
-8266- xtb_calculator_singlepoint: Electronic structure method terminated
-8265- scf: Setup of Coulomb evaluator failed
-8264- type_coulomb_setupBoundaryConditions: Could not setup numerical thresholds
-8263- type_latticepoint_update: Could not generate lattice points
-8262- xtb_calculator_singlepoint: Electronic structure method terminated
-8261- scf: Setup of Coulomb evaluator failed
-8260- type_coulomb_setupBoundaryConditions: Could not setup numerical thresholds
-8259- type_latticepoint_update: Could not generate lattice points
-8258- xtb_calculator_singlepoint: Electronic structure method terminated
-8257- scf: Setup of Coulomb evaluator failed
-8256- type_coulomb_setupBoundaryConditions: Could not setup numerical thresholds
-8255- type_latticepoint_update: Could not generate lattice points
-8254- xtb_calculator_singlepoint: Electronic structure method terminated
-8253- scf: Setup of Coulomb evaluator failed
-8252- type_coulomb_setupBoundaryConditions: Could not setup numerical thresholds
-8251- type_latticepoint_update: Could not generate lattice points
-8250- xtb_calculator_singlepoint: Electronic structure method terminated
-8249- scf: Setup of Coulomb evaluator failed
-8248- type_coulomb_setupBoundaryConditions: Could not setup numerical thresholds
-8247- type_latticepoint_update: Could not generate lattice points
-8246- xtb_calculator_singlepoint: Electronic structure method terminated
-8245- scf: Setup of Coulomb evaluator failed
-8244- type_coulomb_setupBoundaryConditions: Could not setup numerical thresholds
-8243- type_latticepoint_update: Could not generate lattice points
-8242- xtb_calculator_singlepoint: Electronic structure method terminated
-8241- scf: Setup of Coulomb evaluator failed
-8240- type_coulomb_setupBoundaryConditions: Could not setup numerical thresholds
-8239- type_latticepoint_update: Could not generate lattice points
-8238- xtb_calculator_singlepoint: Electronic structure method terminated
-8237- scf: Setup of Coulomb evaluator failed
-8236- type_coulomb_setupBoundaryConditions: Could not setup numerical thresholds
-8235- type_latticepoint_update: Could not generate lattice points
-8234- xtb_calculator_singlepoint: Electronic structure method terminated
-8233- scf: Setup of Coulomb evaluator failed
-8232- type_coulomb_setupBoundaryConditions: Could not setup numerical thresholds
-8231- type_latticepoint_update: Could not generate lattice points
-8230- xtb_calculator_singlepoint: Electronic structure method terminated
-8229- scf: Setup of Coulomb evaluator failed
-8228- type_coulomb_setupBoundaryConditions: Could not setup numerical thresholds
-8227- type_latticepoint_update: Could not generate lattice points
-8226- xtb_calculator_singlepoint: Electronic structure method terminated
-8225- scf: Setup of Coulomb evaluator failed
-8224- type_coulomb_setupBoundaryConditions: Could not setup numerical thresholds
-8223- type_latticepoint_update: Could not generate lattice points
-8222- xtb_calculator_singlepoint: Electronic structure method terminated
-8221- scf: Setup of Coulomb evaluator failed
-8220- type_coulomb_setupBoundaryConditions: Could not setup numerical thresholds
-8219- type_latticepoint_update: Could not generate lattice points
-8218- xtb_calculator_singlepoint: Electronic structure method terminated
-8217- scf: Setup of Coulomb evaluator failed
-8216- type_coulomb_setupBoundaryConditions: Could not setup numerical thresholds
-8215- type_latticepoint_update: Could not generate lattice points
-8214- xtb_calculator_singlepoint: Electronic structure method terminated
-8213- scf: Setup of Coulomb evaluator failed
-8212- type_coulomb_setupBoundaryConditions: Could not setup numerical thresholds
-8211- type_latticepoint_update: Could not generate lattice points
-8210- xtb_calculator_singlepoint: Electronic structure method terminated
-8209- scf: Setup of Coulomb evaluator failed
-8208- type_coulomb_setupBoundaryConditions: Could not setup numerical thresholds
-8207- type_latticepoint_update: Could not generate lattice points
-8206- xtb_calculator_singlepoint: Electronic structure method terminated
-8205- scf: Setup of Coulomb evaluator failed
-8204- type_coulomb_setupBoundaryConditions: Could not setup numerical thresholds
-8203- type_latticepoint_update: Could not generate lattice points
-8202- xtb_calculator_singlepoint: Electronic structure method terminated
-8201- scf: Setup of Coulomb evaluator failed
-8200- type_coulomb_setupBoundaryConditions: Could not setup numerical thresholds
-8199- type_latticepoint_update: Could not generate lattice points
-8198- xtb_calculator_singlepoint: Electronic structure method terminated
-8197- scf: Setup of Coulomb evaluator failed
-8196- type_coulomb_setupBoundaryConditions: Could not setup numerical thresholds
-8195- type_latticepoint_update: Could not generate lattice points
-8194- xtb_calculator_singlepoint: Electronic structure method terminated
-8193- scf: Setup of Coulomb evaluator failed
-8192- type_coulomb_setupBoundaryConditions: Could not setup numerical thresholds
-8191- type_latticepoint_update: Could not generate lattice points
-8190- xtb_calculator_singlepoint: Electronic structure method terminated
-8189- scf: Setup of Coulomb evaluator failed
-8188- type_coulomb_setupBoundaryConditions: Could not setup numerical thresholds
-8187- type_latticepoint_update: Could not generate lattice points
-8186- xtb_calculator_singlepoint: Electronic structure method terminated
-8185- scf: Setup of Coulomb evaluator failed
-8184- type_coulomb_setupBoundaryConditions: Could not setup numerical thresholds
-8183- type_latticepoint_update: Could not generate lattice points
-8182- xtb_calculator_singlepoint: Electronic structure method terminated
-8181- scf: Setup of Coulomb evaluator failed
-8180- type_coulomb_setupBoundaryConditions: Could not setup numerical thresholds
-8179- type_latticepoint_update: Could not generate lattice points
-8178- xtb_calculator_singlepoint: Electronic structure method terminated
-8177- scf: Setup of Coulomb evaluator failed
-8176- type_coulomb_setupBoundaryConditions: Could not setup numerical thresholds
-8175- type_latticepoint_update: Could not generate lattice points
-8174- xtb_calculator_singlepoint: Electronic structure method terminated
-8173- scf: Setup of Coulomb evaluator failed
-8172- type_coulomb_setupBoundaryConditions: Could not setup numerical thresholds
-8171- type_latticepoint_update: Could not generate lattice points
-8170- xtb_calculator_singlepoint: Electronic structure method terminated
-8169- scf: Setup of Coulomb evaluator failed
-8168- type_coulomb_setupBoundaryConditions: Could not setup numerical thresholds
-8167- type_latticepoint_update: Could not generate lattice points
-8166- xtb_calculator_singlepoint: Electronic structure method terminated
-8165- scf: Setup of Coulomb evaluator failed
-8164- type_coulomb_setupBoundaryConditions: Could not setup numerical thresholds
-8163- type_latticepoint_update: Could not generate lattice points
-8162- xtb_calculator_singlepoint: Electronic structure method terminated
-8161- scf: Setup of Coulomb evaluator failed
-8160- type_coulomb_setupBoundaryConditions: Could not setup numerical thresholds
-8159- type_latticepoint_update: Could not generate lattice points
-8158- xtb_calculator_singlepoint: Electronic structure method terminated
-8157- scf: Setup of Coulomb evaluator failed
-8156- type_coulomb_setupBoundaryConditions: Could not setup numerical thresholds
-8155- type_latticepoint_update: Could not generate lattice points
-8154- xtb_calculator_singlepoint: Electronic structure method terminated
-8153- scf: Setup of Coulomb evaluator failed
-8152- type_coulomb_setupBoundaryConditions: Could not setup numerical thresholds
-8151- type_latticepoint_update: Could not generate lattice points
-8150- xtb_calculator_singlepoint: Electronic structure method terminated
-8149- scf: Setup of Coulomb evaluator failed
-8148- type_coulomb_setupBoundaryConditions: Could not setup numerical thresholds
-8147- type_latticepoint_update: Could not generate lattice points
-8146- xtb_calculator_singlepoint: Electronic structure method terminated
-8145- scf: Setup of Coulomb evaluator failed
-8144- type_coulomb_setupBoundaryConditions: Could not setup numerical thresholds
-8143- type_latticepoint_update: Could not generate lattice points
-8142- xtb_calculator_singlepoint: Electronic structure method terminated
-8141- scf: Setup of Coulomb evaluator failed
-8140- type_coulomb_setupBoundaryConditions: Could not setup numerical thresholds
-8139- type_latticepoint_update: Could not generate lattice points
-8138- xtb_calculator_singlepoint: Electronic structure method terminated
-8137- scf: Setup of Coulomb evaluator failed
-8136- type_coulomb_setupBoundaryConditions: Could not setup numerical thresholds
-8135- type_latticepoint_update: Could not generate lattice points
-8134- xtb_calculator_singlepoint: Electronic structure method terminated
-8133- scf: Setup of Coulomb evaluator failed
-8132- type_coulomb_setupBoundaryConditions: Could not setup numerical thresholds
-8131- type_latticepoint_update: Could not generate lattice points
-8130- xtb_calculator_singlepoint: Electronic structure method terminated
-8129- scf: Setup of Coulomb evaluator failed
-8128- type_coulomb_setupBoundaryConditions: Could not setup numerical thresholds
-8127- type_latticepoint_update: Could not generate lattice points
-8126- xtb_calculator_singlepoint: Electronic structure method terminated
-8125- scf: Setup of Coulomb evaluator failed
-8124- type_coulomb_setupBoundaryConditions: Could not setup numerical thresholds
-8123- type_latticepoint_update: Could not generate lattice points
-8122- xtb_calculator_singlepoint: Electronic structure method terminated
-8121- scf: Setup of Coulomb evaluator failed
-8120- type_coulomb_setupBoundaryConditions: Could not setup numerical thresholds
-8119- type_latticepoint_update: Could not generate lattice points
-8118- xtb_calculator_singlepoint: Electronic structure method terminated
-8117- scf: Setup of Coulomb evaluator failed
-8116- type_coulomb_setupBoundaryConditions: Could not setup numerical thresholds
-8115- type_latticepoint_update: Could not generate lattice points
-8114- xtb_calculator_singlepoint: Electronic structure method terminated
-8113- scf: Setup of Coulomb evaluator failed
-8112- type_coulomb_setupBoundaryConditions: Could not setup numerical thresholds
-8111- type_latticepoint_update: Could not generate lattice points
-8110- xtb_calculator_singlepoint: Electronic structure method terminated
-8109- scf: Setup of Coulomb evaluator failed
-8108- type_coulomb_setupBoundaryConditions: Could not setup numerical thresholds
-8107- type_latticepoint_update: Could not generate lattice points
-8106- xtb_calculator_singlepoint: Electronic structure method terminated
-8105- scf: Setup of Coulomb evaluator failed
-8104- type_coulomb_setupBoundaryConditions: Could not setup numerical thresholds
-8103- type_latticepoint_update: Could not generate lattice points
-8102- xtb_calculator_singlepoint: Electronic structure method terminated
-8101- scf: Setup of Coulomb evaluator failed
-8100- type_coulomb_setupBoundaryConditions: Could not setup numerical thresholds
-8099- type_latticepoint_update: Could not generate lattice points
-8098- xtb_calculator_singlepoint: Electronic structure method terminated
-8097- scf: Setup of Coulomb evaluator failed
-8096- type_coulomb_setupBoundaryConditions: Could not setup numerical thresholds
-8095- type_latticepoint_update: Could not generate lattice points
-8094- xtb_calculator_singlepoint: Electronic structure method terminated
-8093- scf: Setup of Coulomb evaluator failed
-8092- type_coulomb_setupBoundaryConditions: Could not setup numerical thresholds
-8091- type_latticepoint_update: Could not generate lattice points
-8090- xtb_calculator_singlepoint: Electronic structure method terminated
-8089- scf: Setup of Coulomb evaluator failed
-8088- type_coulomb_setupBoundaryConditions: Could not setup numerical thresholds
-8087- type_latticepoint_update: Could not generate lattice points
-8086- xtb_calculator_singlepoint: Electronic structure method terminated
-8085- scf: Setup of Coulomb evaluator failed
-8084- type_coulomb_setupBoundaryConditions: Could not setup numerical thresholds
-8083- type_latticepoint_update: Could not generate lattice points
-8082- xtb_calculator_singlepoint: Electronic structure method terminated
-8081- scf: Setup of Coulomb evaluator failed
-8080- type_coulomb_setupBoundaryConditions: Could not setup numerical thresholds
-8079- type_latticepoint_update: Could not generate lattice points
-8078- xtb_calculator_singlepoint: Electronic structure method terminated
-8077- scf: Setup of Coulomb evaluator failed
-8076- type_coulomb_setupBoundaryConditions: Could not setup numerical thresholds
-8075- type_latticepoint_update: Could not generate lattice points
-8074- xtb_calculator_singlepoint: Electronic structure method terminated
-8073- scf: Setup of Coulomb evaluator failed
-8072- type_coulomb_setupBoundaryConditions: Could not setup numerical thresholds
-8071- type_latticepoint_update: Could not generate lattice points
-8070- xtb_calculator_singlepoint: Electronic structure method terminated
-8069- scf: Setup of Coulomb evaluator failed
-8068- type_coulomb_setupBoundaryConditions: Could not setup numerical thresholds
-8067- type_latticepoint_update: Could not generate lattice points
-8066- xtb_calculator_singlepoint: Electronic structure method terminated
-8065- scf: Setup of Coulomb evaluator failed
-8064- type_coulomb_setupBoundaryConditions: Could not setup numerical thresholds
-8063- type_latticepoint_update: Could not generate lattice points
-8062- xtb_calculator_singlepoint: Electronic structure method terminated
-8061- scf: Setup of Coulomb evaluator failed
-8060- type_coulomb_setupBoundaryConditions: Could not setup numerical thresholds
-8059- type_latticepoint_update: Could not generate lattice points
-8058- xtb_calculator_singlepoint: Electronic structure method terminated
-8057- scf: Setup of Coulomb evaluator failed
-8056- type_coulomb_setupBoundaryConditions: Could not setup numerical thresholds
-8055- type_latticepoint_update: Could not generate lattice points
-8054- xtb_calculator_singlepoint: Electronic structure method terminated
-8053- scf: Setup of Coulomb evaluator failed
-8052- type_coulomb_setupBoundaryConditions: Could not setup numerical thresholds
-8051- type_latticepoint_update: Could not generate lattice points
-8050- xtb_calculator_singlepoint: Electronic structure method terminated
-8049- scf: Setup of Coulomb evaluator failed
-8048- type_coulomb_setupBoundaryConditions: Could not setup numerical thresholds
-8047- type_latticepoint_update: Could not generate lattice points
-8046- xtb_calculator_singlepoint: Electronic structure method terminated
-8045- scf: Setup of Coulomb evaluator failed
-8044- type_coulomb_setupBoundaryConditions: Could not setup numerical thresholds
-8043- type_latticepoint_update: Could not generate lattice points
-8042- xtb_calculator_singlepoint: Electronic structure method terminated
-8041- scf: Setup of Coulomb evaluator failed
-8040- type_coulomb_setupBoundaryConditions: Could not setup numerical thresholds
-8039- type_latticepoint_update: Could not generate lattice points
-8038- xtb_calculator_singlepoint: Electronic structure method terminated
-8037- scf: Setup of Coulomb evaluator failed
-8036- type_coulomb_setupBoundaryConditions: Could not setup numerical thresholds
-8035- type_latticepoint_update: Could not generate lattice points
-8034- xtb_calculator_singlepoint: Electronic structure method terminated
-8033- scf: Setup of Coulomb evaluator failed
-8032- type_coulomb_setupBoundaryConditions: Could not setup numerical thresholds
-8031- type_latticepoint_update: Could not generate lattice points
-8030- xtb_calculator_singlepoint: Electronic structure method terminated
-8029- scf: Setup of Coulomb evaluator failed
-8028- type_coulomb_setupBoundaryConditions: Could not setup numerical thresholds
-8027- type_latticepoint_update: Could not generate lattice points
-8026- xtb_calculator_singlepoint: Electronic structure method terminated
-8025- scf: Setup of Coulomb evaluator failed
-8024- type_coulomb_setupBoundaryConditions: Could not setup numerical thresholds
-8023- type_latticepoint_update: Could not generate lattice points
-8022- xtb_calculator_singlepoint: Electronic structure method terminated
-8021- scf: Setup of Coulomb evaluator failed
-8020- type_coulomb_setupBoundaryConditions: Could not setup numerical thresholds
-8019- type_latticepoint_update: Could not generate lattice points
-8018- xtb_calculator_singlepoint: Electronic structure method terminated
-8017- scf: Setup of Coulomb evaluator failed
-8016- type_coulomb_setupBoundaryConditions: Could not setup numerical thresholds
-8015- type_latticepoint_update: Could not generate lattice points
-8014- xtb_calculator_singlepoint: Electronic structure method terminated
-8013- scf: Setup of Coulomb evaluator failed
-8012- type_coulomb_setupBoundaryConditions: Could not setup numerical thresholds
-8011- type_latticepoint_update: Could not generate lattice points
-8010- xtb_calculator_singlepoint: Electronic structure method terminated
-8009- scf: Setup of Coulomb evaluator failed
-8008- type_coulomb_setupBoundaryConditions: Could not setup numerical thresholds
-8007- type_latticepoint_update: Could not generate lattice points
-8006- xtb_calculator_singlepoint: Electronic structure method terminated
-8005- scf: Setup of Coulomb evaluator failed
-8004- type_coulomb_setupBoundaryConditions: Could not setup numerical thresholds
-8003- type_latticepoint_update: Could not generate lattice points
-8002- xtb_calculator_singlepoint: Electronic structure method terminated
-8001- scf: Setup of Coulomb evaluator failed
-8000- type_coulomb_setupBoundaryConditions: Could not setup numerical thresholds
-7999- type_latticepoint_update: Could not generate lattice points
-7998- xtb_calculator_singlepoint: Electronic structure method terminated
-7997- scf: Setup of Coulomb evaluator failed
-7996- type_coulomb_setupBoundaryConditions: Could not setup numerical thresholds
-7995- type_latticepoint_update: Could not generate lattice points
-7994- xtb_calculator_singlepoint: Electronic structure method terminated
-7993- scf: Setup of Coulomb evaluator failed
-7992- type_coulomb_setupBoundaryConditions: Could not setup numerical thresholds
-7991- type_latticepoint_update: Could not generate lattice points
-7990- xtb_calculator_singlepoint: Electronic structure method terminated
-7989- scf: Setup of Coulomb evaluator failed
-7988- type_coulomb_setupBoundaryConditions: Could not setup numerical thresholds
-7987- type_latticepoint_update: Could not generate lattice points
-7986- xtb_calculator_singlepoint: Electronic structure method terminated
-7985- scf: Setup of Coulomb evaluator failed
-7984- type_coulomb_setupBoundaryConditions: Could not setup numerical thresholds
-7983- type_latticepoint_update: Could not generate lattice points
-7982- xtb_calculator_singlepoint: Electronic structure method terminated
-7981- scf: Setup of Coulomb evaluator failed
-7980- type_coulomb_setupBoundaryConditions: Could not setup numerical thresholds
-7979- type_latticepoint_update: Could not generate lattice points
-7978- xtb_calculator_singlepoint: Electronic structure method terminated
-7977- scf: Setup of Coulomb evaluator failed
-7976- type_coulomb_setupBoundaryConditions: Could not setup numerical thresholds
-7975- type_latticepoint_update: Could not generate lattice points
-7974- xtb_calculator_singlepoint: Electronic structure method terminated
-7973- scf: Setup of Coulomb evaluator failed
-7972- type_coulomb_setupBoundaryConditions: Could not setup numerical thresholds
-7971- type_latticepoint_update: Could not generate lattice points
-7970- xtb_calculator_singlepoint: Electronic structure method terminated
-7969- scf: Setup of Coulomb evaluator failed
-7968- type_coulomb_setupBoundaryConditions: Could not setup numerical thresholds
-7967- type_latticepoint_update: Could not generate lattice points
-7966- xtb_calculator_singlepoint: Electronic structure method terminated
-7965- scf: Setup of Coulomb evaluator failed
-7964- type_coulomb_setupBoundaryConditions: Could not setup numerical thresholds
-7963- type_latticepoint_update: Could not generate lattice points
-7962- xtb_calculator_singlepoint: Electronic structure method terminated
-7961- scf: Setup of Coulomb evaluator failed
-7960- type_coulomb_setupBoundaryConditions: Could not setup numerical thresholds
-7959- type_latticepoint_update: Could not generate lattice points
-7958- xtb_calculator_singlepoint: Electronic structure method terminated
-7957- scf: Setup of Coulomb evaluator failed
-7956- type_coulomb_setupBoundaryConditions: Could not setup numerical thresholds
-7955- type_latticepoint_update: Could not generate lattice points
-7954- xtb_calculator_singlepoint: Electronic structure method terminated
-7953- scf: Setup of Coulomb evaluator failed
-7952- type_coulomb_setupBoundaryConditions: Could not setup numerical thresholds
-7951- type_latticepoint_update: Could not generate lattice points
-7950- xtb_calculator_singlepoint: Electronic structure method terminated
-7949- scf: Setup of Coulomb evaluator failed
-7948- type_coulomb_setupBoundaryConditions: Could not setup numerical thresholds
-7947- type_latticepoint_update: Could not generate lattice points
-7946- xtb_calculator_singlepoint: Electronic structure method terminated
-7945- scf: Setup of Coulomb evaluator failed
-7944- type_coulomb_setupBoundaryConditions: Could not setup numerical thresholds
-7943- type_latticepoint_update: Could not generate lattice points
-7942- xtb_calculator_singlepoint: Electronic structure method terminated
-7941- scf: Setup of Coulomb evaluator failed
-7940- type_coulomb_setupBoundaryConditions: Could not setup numerical thresholds
-7939- type_latticepoint_update: Could not generate lattice points
-7938- xtb_calculator_singlepoint: Electronic structure method terminated
-7937- scf: Setup of Coulomb evaluator failed
-7936- type_coulomb_setupBoundaryConditions: Could not setup numerical thresholds
-7935- type_latticepoint_update: Could not generate lattice points
-7934- xtb_calculator_singlepoint: Electronic structure method terminated
-7933- scf: Setup of Coulomb evaluator failed
-7932- type_coulomb_setupBoundaryConditions: Could not setup numerical thresholds
-7931- type_latticepoint_update: Could not generate lattice points
-7930- xtb_calculator_singlepoint: Electronic structure method terminated
-7929- scf: Setup of Coulomb evaluator failed
-7928- type_coulomb_setupBoundaryConditions: Could not setup numerical thresholds
-7927- type_latticepoint_update: Could not generate lattice points
-7926- xtb_calculator_singlepoint: Electronic structure method terminated
-7925- scf: Setup of Coulomb evaluator failed
-7924- type_coulomb_setupBoundaryConditions: Could not setup numerical thresholds
-7923- type_latticepoint_update: Could not generate lattice points
-7922- xtb_calculator_singlepoint: Electronic structure method terminated
-7921- scf: Setup of Coulomb evaluator failed
-7920- type_coulomb_setupBoundaryConditions: Could not setup numerical thresholds
-7919- type_latticepoint_update: Could not generate lattice points
-7918- xtb_calculator_singlepoint: Electronic structure method terminated
-7917- scf: Setup of Coulomb evaluator failed
-7916- type_coulomb_setupBoundaryConditions: Could not setup numerical thresholds
-7915- type_latticepoint_update: Could not generate lattice points
-7914- xtb_calculator_singlepoint: Electronic structure method terminated
-7913- scf: Setup of Coulomb evaluator failed
-7912- type_coulomb_setupBoundaryConditions: Could not setup numerical thresholds
-7911- type_latticepoint_update: Could not generate lattice points
-7910- xtb_calculator_singlepoint: Electronic structure method terminated
-7909- scf: Setup of Coulomb evaluator failed
-7908- type_coulomb_setupBoundaryConditions: Could not setup numerical thresholds
-7907- type_latticepoint_update: Could not generate lattice points
-7906- xtb_calculator_singlepoint: Electronic structure method terminated
-7905- scf: Setup of Coulomb evaluator failed
-7904- type_coulomb_setupBoundaryConditions: Could not setup numerical thresholds
-7903- type_latticepoint_update: Could not generate lattice points
-7902- xtb_calculator_singlepoint: Electronic structure method terminated
-7901- scf: Setup of Coulomb evaluator failed
-7900- type_coulomb_setupBoundaryConditions: Could not setup numerical thresholds
-7899- type_latticepoint_update: Could not generate lattice points
-7898- xtb_calculator_singlepoint: Electronic structure method terminated
-7897- scf: Setup of Coulomb evaluator failed
-7896- type_coulomb_setupBoundaryConditions: Could not setup numerical thresholds
-7895- type_latticepoint_update: Could not generate lattice points
-7894- xtb_calculator_singlepoint: Electronic structure method terminated
-7893- scf: Setup of Coulomb evaluator failed
-7892- type_coulomb_setupBoundaryConditions: Could not setup numerical thresholds
-7891- type_latticepoint_update: Could not generate lattice points
-7890- xtb_calculator_singlepoint: Electronic structure method terminated
-7889- scf: Setup of Coulomb evaluator failed
-7888- type_coulomb_setupBoundaryConditions: Could not setup numerical thresholds
-7887- type_latticepoint_update: Could not generate lattice points
-7886- xtb_calculator_singlepoint: Electronic structure method terminated
-7885- scf: Setup of Coulomb evaluator failed
-7884- type_coulomb_setupBoundaryConditions: Could not setup numerical thresholds
-7883- type_latticepoint_update: Could not generate lattice points
-7882- xtb_calculator_singlepoint: Electronic structure method terminated
-7881- scf: Setup of Coulomb evaluator failed
-7880- type_coulomb_setupBoundaryConditions: Could not setup numerical thresholds
-7879- type_latticepoint_update: Could not generate lattice points
-7878- xtb_calculator_singlepoint: Electronic structure method terminated
-7877- scf: Setup of Coulomb evaluator failed
-7876- type_coulomb_setupBoundaryConditions: Could not setup numerical thresholds
-7875- type_latticepoint_update: Could not generate lattice points
-7874- xtb_calculator_singlepoint: Electronic structure method terminated
-7873- scf: Setup of Coulomb evaluator failed
-7872- type_coulomb_setupBoundaryConditions: Could not setup numerical thresholds
-7871- type_latticepoint_update: Could not generate lattice points
-7870- xtb_calculator_singlepoint: Electronic structure method terminated
-7869- scf: Setup of Coulomb evaluator failed
-7868- type_coulomb_setupBoundaryConditions: Could not setup numerical thresholds
-7867- type_latticepoint_update: Could not generate lattice points
-7866- xtb_calculator_singlepoint: Electronic structure method terminated
-7865- scf: Setup of Coulomb evaluator failed
-7864- type_coulomb_setupBoundaryConditions: Could not setup numerical thresholds
-7863- type_latticepoint_update: Could not generate lattice points
-7862- xtb_calculator_singlepoint: Electronic structure method terminated
-7861- scf: Setup of Coulomb evaluator failed
-7860- type_coulomb_setupBoundaryConditions: Could not setup numerical thresholds
-7859- type_latticepoint_update: Could not generate lattice points
-7858- xtb_calculator_singlepoint: Electronic structure method terminated
-7857- scf: Setup of Coulomb evaluator failed
-7856- type_coulomb_setupBoundaryConditions: Could not setup numerical thresholds
-7855- type_latticepoint_update: Could not generate lattice points
-7854- xtb_calculator_singlepoint: Electronic structure method terminated
-7853- scf: Setup of Coulomb evaluator failed
-7852- type_coulomb_setupBoundaryConditions: Could not setup numerical thresholds
-7851- type_latticepoint_update: Could not generate lattice points
-7850- xtb_calculator_singlepoint: Electronic structure method terminated
-7849- scf: Setup of Coulomb evaluator failed
-7848- type_coulomb_setupBoundaryConditions: Could not setup numerical thresholds
-7847- type_latticepoint_update: Could not generate lattice points
-7846- xtb_calculator_singlepoint: Electronic structure method terminated
-7845- scf: Setup of Coulomb evaluator failed
-7844- type_coulomb_setupBoundaryConditions: Could not setup numerical thresholds
-7843- type_latticepoint_update: Could not generate lattice points
-7842- xtb_calculator_singlepoint: Electronic structure method terminated
-7841- scf: Setup of Coulomb evaluator failed
-7840- type_coulomb_setupBoundaryConditions: Could not setup numerical thresholds
-7839- type_latticepoint_update: Could not generate lattice points
-7838- xtb_calculator_singlepoint: Electronic structure method terminated
-7837- scf: Setup of Coulomb evaluator failed
-7836- type_coulomb_setupBoundaryConditions: Could not setup numerical thresholds
-7835- type_latticepoint_update: Could not generate lattice points
-7834- xtb_calculator_singlepoint: Electronic structure method terminated
-7833- scf: Setup of Coulomb evaluator failed
-7832- type_coulomb_setupBoundaryConditions: Could not setup numerical thresholds
-7831- type_latticepoint_update: Could not generate lattice points
-7830- xtb_calculator_singlepoint: Electronic structure method terminated
-7829- scf: Setup of Coulomb evaluator failed
-7828- type_coulomb_setupBoundaryConditions: Could not setup numerical thresholds
-7827- type_latticepoint_update: Could not generate lattice points
-7826- xtb_calculator_singlepoint: Electronic structure method terminated
-7825- scf: Setup of Coulomb evaluator failed
-7824- type_coulomb_setupBoundaryConditions: Could not setup numerical thresholds
-7823- type_latticepoint_update: Could not generate lattice points
-7822- xtb_calculator_singlepoint: Electronic structure method terminated
-7821- scf: Setup of Coulomb evaluator failed
-7820- type_coulomb_setupBoundaryConditions: Could not setup numerical thresholds
-7819- type_latticepoint_update: Could not generate lattice points
-7818- xtb_calculator_singlepoint: Electronic structure method terminated
-7817- scf: Setup of Coulomb evaluator failed
-7816- type_coulomb_setupBoundaryConditions: Could not setup numerical thresholds
-7815- type_latticepoint_update: Could not generate lattice points
-7814- xtb_calculator_singlepoint: Electronic structure method terminated
-7813- scf: Setup of Coulomb evaluator failed
-7812- type_coulomb_setupBoundaryConditions: Could not setup numerical thresholds
-7811- type_latticepoint_update: Could not generate lattice points
-7810- xtb_calculator_singlepoint: Electronic structure method terminated
-7809- scf: Setup of Coulomb evaluator failed
-7808- type_coulomb_setupBoundaryConditions: Could not setup numerical thresholds
-7807- type_latticepoint_update: Could not generate lattice points
-7806- xtb_calculator_singlepoint: Electronic structure method terminated
-7805- scf: Setup of Coulomb evaluator failed
-7804- type_coulomb_setupBoundaryConditions: Could not setup numerical thresholds
-7803- type_latticepoint_update: Could not generate lattice points
-7802- xtb_calculator_singlepoint: Electronic structure method terminated
-7801- scf: Setup of Coulomb evaluator failed
-7800- type_coulomb_setupBoundaryConditions: Could not setup numerical thresholds
-7799- type_latticepoint_update: Could not generate lattice points
-7798- xtb_calculator_singlepoint: Electronic structure method terminated
-7797- scf: Setup of Coulomb evaluator failed
-7796- type_coulomb_setupBoundaryConditions: Could not setup numerical thresholds
-7795- type_latticepoint_update: Could not generate lattice points
-7794- xtb_calculator_singlepoint: Electronic structure method terminated
-7793- scf: Setup of Coulomb evaluator failed
-7792- type_coulomb_setupBoundaryConditions: Could not setup numerical thresholds
-7791- type_latticepoint_update: Could not generate lattice points
-7790- xtb_calculator_singlepoint: Electronic structure method terminated
-7789- scf: Setup of Coulomb evaluator failed
-7788- type_coulomb_setupBoundaryConditions: Could not setup numerical thresholds
-7787- type_latticepoint_update: Could not generate lattice points
-7786- xtb_calculator_singlepoint: Electronic structure method terminated
-7785- scf: Setup of Coulomb evaluator failed
-7784- type_coulomb_setupBoundaryConditions: Could not setup numerical thresholds
-7783- type_latticepoint_update: Could not generate lattice points
-7782- xtb_calculator_singlepoint: Electronic structure method terminated
-7781- scf: Setup of Coulomb evaluator failed
-7780- type_coulomb_setupBoundaryConditions: Could not setup numerical thresholds
-7779- type_latticepoint_update: Could not generate lattice points
-7778- xtb_calculator_singlepoint: Electronic structure method terminated
-7777- scf: Setup of Coulomb evaluator failed
-7776- type_coulomb_setupBoundaryConditions: Could not setup numerical thresholds
-7775- type_latticepoint_update: Could not generate lattice points
-7774- xtb_calculator_singlepoint: Electronic structure method terminated
-7773- scf: Setup of Coulomb evaluator failed
-7772- type_coulomb_setupBoundaryConditions: Could not setup numerical thresholds
-7771- type_latticepoint_update: Could not generate lattice points
-7770- xtb_calculator_singlepoint: Electronic structure method terminated
-7769- scf: Setup of Coulomb evaluator failed
-7768- type_coulomb_setupBoundaryConditions: Could not setup numerical thresholds
-7767- type_latticepoint_update: Could not generate lattice points
-7766- xtb_calculator_singlepoint: Electronic structure method terminated
-7765- scf: Setup of Coulomb evaluator failed
-7764- type_coulomb_setupBoundaryConditions: Could not setup numerical thresholds
-7763- type_latticepoint_update: Could not generate lattice points
-7762- xtb_calculator_singlepoint: Electronic structure method terminated
-7761- scf: Setup of Coulomb evaluator failed
-7760- type_coulomb_setupBoundaryConditions: Could not setup numerical thresholds
-7759- type_latticepoint_update: Could not generate lattice points
-7758- xtb_calculator_singlepoint: Electronic structure method terminated
-7757- scf: Setup of Coulomb evaluator failed
-7756- type_coulomb_setupBoundaryConditions: Could not setup numerical thresholds
-7755- type_latticepoint_update: Could not generate lattice points
-7754- xtb_calculator_singlepoint: Electronic structure method terminated
-7753- scf: Setup of Coulomb evaluator failed
-7752- type_coulomb_setupBoundaryConditions: Could not setup numerical thresholds
-7751- type_latticepoint_update: Could not generate lattice points
-7750- xtb_calculator_singlepoint: Electronic structure method terminated
-7749- scf: Setup of Coulomb evaluator failed
-7748- type_coulomb_setupBoundaryConditions: Could not setup numerical thresholds
-7747- type_latticepoint_update: Could not generate lattice points
-7746- xtb_calculator_singlepoint: Electronic structure method terminated
-7745- scf: Setup of Coulomb evaluator failed
-7744- type_coulomb_setupBoundaryConditions: Could not setup numerical thresholds
-7743- type_latticepoint_update: Could not generate lattice points
-7742- xtb_calculator_singlepoint: Electronic structure method terminated
-7741- scf: Setup of Coulomb evaluator failed
-7740- type_coulomb_setupBoundaryConditions: Could not setup numerical thresholds
-7739- type_latticepoint_update: Could not generate lattice points
-7738- xtb_calculator_singlepoint: Electronic structure method terminated
-7737- scf: Setup of Coulomb evaluator failed
-7736- type_coulomb_setupBoundaryConditions: Could not setup numerical thresholds
-7735- type_latticepoint_update: Could not generate lattice points
-7734- xtb_calculator_singlepoint: Electronic structure method terminated
-7733- scf: Setup of Coulomb evaluator failed
-7732- type_coulomb_setupBoundaryConditions: Could not setup numerical thresholds
-7731- type_latticepoint_update: Could not generate lattice points
-7730- xtb_calculator_singlepoint: Electronic structure method terminated
-7729- scf: Setup of Coulomb evaluator failed
-7728- type_coulomb_setupBoundaryConditions: Could not setup numerical thresholds
-7727- type_latticepoint_update: Could not generate lattice points
-7726- xtb_calculator_singlepoint: Electronic structure method terminated
-7725- scf: Setup of Coulomb evaluator failed
-7724- type_coulomb_setupBoundaryConditions: Could not setup numerical thresholds
-7723- type_latticepoint_update: Could not generate lattice points
-7722- xtb_calculator_singlepoint: Electronic structure method terminated
-7721- scf: Setup of Coulomb evaluator failed
-7720- type_coulomb_setupBoundaryConditions: Could not setup numerical thresholds
-7719- type_latticepoint_update: Could not generate lattice points
-7718- xtb_calculator_singlepoint: Electronic structure method terminated
-7717- scf: Setup of Coulomb evaluator failed
-7716- type_coulomb_setupBoundaryConditions: Could not setup numerical thresholds
-7715- type_latticepoint_update: Could not generate lattice points
-7714- xtb_calculator_singlepoint: Electronic structure method terminated
-7713- scf: Setup of Coulomb evaluator failed
-7712- type_coulomb_setupBoundaryConditions: Could not setup numerical thresholds
-7711- type_latticepoint_update: Could not generate lattice points
-7710- xtb_calculator_singlepoint: Electronic structure method terminated
-7709- scf: Setup of Coulomb evaluator failed
-7708- type_coulomb_setupBoundaryConditions: Could not setup numerical thresholds
-7707- type_latticepoint_update: Could not generate lattice points
-7706- xtb_calculator_singlepoint: Electronic structure method terminated
-7705- scf: Setup of Coulomb evaluator failed
-7704- type_coulomb_setupBoundaryConditions: Could not setup numerical thresholds
-7703- type_latticepoint_update: Could not generate lattice points
-7702- xtb_calculator_singlepoint: Electronic structure method terminated
-7701- scf: Setup of Coulomb evaluator failed
-7700- type_coulomb_setupBoundaryConditions: Could not setup numerical thresholds
-7699- type_latticepoint_update: Could not generate lattice points
-7698- xtb_calculator_singlepoint: Electronic structure method terminated
-7697- scf: Setup of Coulomb evaluator failed
-7696- type_coulomb_setupBoundaryConditions: Could not setup numerical thresholds
-7695- type_latticepoint_update: Could not generate lattice points
-7694- xtb_calculator_singlepoint: Electronic structure method terminated
-7693- scf: Setup of Coulomb evaluator failed
-7692- type_coulomb_setupBoundaryConditions: Could not setup numerical thresholds
-7691- type_latticepoint_update: Could not generate lattice points
-7690- xtb_calculator_singlepoint: Electronic structure method terminated
-7689- scf: Setup of Coulomb evaluator failed
-7688- type_coulomb_setupBoundaryConditions: Could not setup numerical thresholds
-7687- type_latticepoint_update: Could not generate lattice points
-7686- xtb_calculator_singlepoint: Electronic structure method terminated
-7685- scf: Setup of Coulomb evaluator failed
-7684- type_coulomb_setupBoundaryConditions: Could not setup numerical thresholds
-7683- type_latticepoint_update: Could not generate lattice points
-7682- xtb_calculator_singlepoint: Electronic structure method terminated
-7681- scf: Setup of Coulomb evaluator failed
-7680- type_coulomb_setupBoundaryConditions: Could not setup numerical thresholds
-7679- type_latticepoint_update: Could not generate lattice points
-7678- xtb_calculator_singlepoint: Electronic structure method terminated
-7677- scf: Setup of Coulomb evaluator failed
-7676- type_coulomb_setupBoundaryConditions: Could not setup numerical thresholds
-7675- type_latticepoint_update: Could not generate lattice points
-7674- xtb_calculator_singlepoint: Electronic structure method terminated
-7673- scf: Setup of Coulomb evaluator failed
-7672- type_coulomb_setupBoundaryConditions: Could not setup numerical thresholds
-7671- type_latticepoint_update: Could not generate lattice points
-7670- xtb_calculator_singlepoint: Electronic structure method terminated
-7669- scf: Setup of Coulomb evaluator failed
-7668- type_coulomb_setupBoundaryConditions: Could not setup numerical thresholds
-7667- type_latticepoint_update: Could not generate lattice points
-7666- xtb_calculator_singlepoint: Electronic structure method terminated
-7665- scf: Setup of Coulomb evaluator failed
-7664- type_coulomb_setupBoundaryConditions: Could not setup numerical thresholds
-7663- type_latticepoint_update: Could not generate lattice points
-7662- xtb_calculator_singlepoint: Electronic structure method terminated
-7661- scf: Setup of Coulomb evaluator failed
-7660- type_coulomb_setupBoundaryConditions: Could not setup numerical thresholds
-7659- type_latticepoint_update: Could not generate lattice points
-7658- xtb_calculator_singlepoint: Electronic structure method terminated
-7657- scf: Setup of Coulomb evaluator failed
-7656- type_coulomb_setupBoundaryConditions: Could not setup numerical thresholds
-7655- type_latticepoint_update: Could not generate lattice points
-7654- xtb_calculator_singlepoint: Electronic structure method terminated
-7653- scf: Setup of Coulomb evaluator failed
-7652- type_coulomb_setupBoundaryConditions: Could not setup numerical thresholds
-7651- type_latticepoint_update: Could not generate lattice points
-7650- xtb_calculator_singlepoint: Electronic structure method terminated
-7649- scf: Setup of Coulomb evaluator failed
-7648- type_coulomb_setupBoundaryConditions: Could not setup numerical thresholds
-7647- type_latticepoint_update: Could not generate lattice points
-7646- xtb_calculator_singlepoint: Electronic structure method terminated
-7645- scf: Setup of Coulomb evaluator failed
-7644- type_coulomb_setupBoundaryConditions: Could not setup numerical thresholds
-7643- type_latticepoint_update: Could not generate lattice points
-7642- xtb_calculator_singlepoint: Electronic structure method terminated
-7641- scf: Setup of Coulomb evaluator failed
-7640- type_coulomb_setupBoundaryConditions: Could not setup numerical thresholds
-7639- type_latticepoint_update: Could not generate lattice points
-7638- xtb_calculator_singlepoint: Electronic structure method terminated
-7637- scf: Setup of Coulomb evaluator failed
-7636- type_coulomb_setupBoundaryConditions: Could not setup numerical thresholds
-7635- type_latticepoint_update: Could not generate lattice points
-7634- xtb_calculator_singlepoint: Electronic structure method terminated
-7633- scf: Setup of Coulomb evaluator failed
-7632- type_coulomb_setupBoundaryConditions: Could not setup numerical thresholds
-7631- type_latticepoint_update: Could not generate lattice points
-7630- xtb_calculator_singlepoint: Electronic structure method terminated
-7629- scf: Setup of Coulomb evaluator failed
-7628- type_coulomb_setupBoundaryConditions: Could not setup numerical thresholds
-7627- type_latticepoint_update: Could not generate lattice points
-7626- xtb_calculator_singlepoint: Electronic structure method terminated
-7625- scf: Setup of Coulomb evaluator failed
-7624- type_coulomb_setupBoundaryConditions: Could not setup numerical thresholds
-7623- type_latticepoint_update: Could not generate lattice points
-7622- xtb_calculator_singlepoint: Electronic structure method terminated
-7621- scf: Setup of Coulomb evaluator failed
-7620- type_coulomb_setupBoundaryConditions: Could not setup numerical thresholds
-7619- type_latticepoint_update: Could not generate lattice points
-7618- xtb_calculator_singlepoint: Electronic structure method terminated
-7617- scf: Setup of Coulomb evaluator failed
-7616- type_coulomb_setupBoundaryConditions: Could not setup numerical thresholds
-7615- type_latticepoint_update: Could not generate lattice points
-7614- xtb_calculator_singlepoint: Electronic structure method terminated
-7613- scf: Setup of Coulomb evaluator failed
-7612- type_coulomb_setupBoundaryConditions: Could not setup numerical thresholds
-7611- type_latticepoint_update: Could not generate lattice points
-7610- xtb_calculator_singlepoint: Electronic structure method terminated
-7609- scf: Setup of Coulomb evaluator failed
-7608- type_coulomb_setupBoundaryConditions: Could not setup numerical thresholds
-7607- type_latticepoint_update: Could not generate lattice points
-7606- xtb_calculator_singlepoint: Electronic structure method terminated
-7605- scf: Setup of Coulomb evaluator failed
-7604- type_coulomb_setupBoundaryConditions: Could not setup numerical thresholds
-7603- type_latticepoint_update: Could not generate lattice points
-7602- xtb_calculator_singlepoint: Electronic structure method terminated
-7601- scf: Setup of Coulomb evaluator failed
-7600- type_coulomb_setupBoundaryConditions: Could not setup numerical thresholds
-7599- type_latticepoint_update: Could not generate lattice points
-7598- xtb_calculator_singlepoint: Electronic structure method terminated
-7597- scf: Setup of Coulomb evaluator failed
-7596- type_coulomb_setupBoundaryConditions: Could not setup numerical thresholds
-7595- type_latticepoint_update: Could not generate lattice points
-7594- xtb_calculator_singlepoint: Electronic structure method terminated
-7593- scf: Setup of Coulomb evaluator failed
-7592- type_coulomb_setupBoundaryConditions: Could not setup numerical thresholds
-7591- type_latticepoint_update: Could not generate lattice points
-7590- xtb_calculator_singlepoint: Electronic structure method terminated
-7589- scf: Setup of Coulomb evaluator failed
-7588- type_coulomb_setupBoundaryConditions: Could not setup numerical thresholds
-7587- type_latticepoint_update: Could not generate lattice points
-7586- xtb_calculator_singlepoint: Electronic structure method terminated
-7585- scf: Setup of Coulomb evaluator failed
-7584- type_coulomb_setupBoundaryConditions: Could not setup numerical thresholds
-7583- type_latticepoint_update: Could not generate lattice points
-7582- xtb_calculator_singlepoint: Electronic structure method terminated
-7581- scf: Setup of Coulomb evaluator failed
-7580- type_coulomb_setupBoundaryConditions: Could not setup numerical thresholds
-7579- type_latticepoint_update: Could not generate lattice points
-7578- xtb_calculator_singlepoint: Electronic structure method terminated
-7577- scf: Setup of Coulomb evaluator failed
-7576- type_coulomb_setupBoundaryConditions: Could not setup numerical thresholds
-7575- type_latticepoint_update: Could not generate lattice points
-7574- xtb_calculator_singlepoint: Electronic structure method terminated
-7573- scf: Setup of Coulomb evaluator failed
-7572- type_coulomb_setupBoundaryConditions: Could not setup numerical thresholds
-7571- type_latticepoint_update: Could not generate lattice points
-7570- xtb_calculator_singlepoint: Electronic structure method terminated
-7569- scf: Setup of Coulomb evaluator failed
-7568- type_coulomb_setupBoundaryConditions: Could not setup numerical thresholds
-7567- type_latticepoint_update: Could not generate lattice points
-7566- xtb_calculator_singlepoint: Electronic structure method terminated
-7565- scf: Setup of Coulomb evaluator failed
-7564- type_coulomb_setupBoundaryConditions: Could not setup numerical thresholds
-7563- type_latticepoint_update: Could not generate lattice points
-7562- xtb_calculator_singlepoint: Electronic structure method terminated
-7561- scf: Setup of Coulomb evaluator failed
-7560- type_coulomb_setupBoundaryConditions: Could not setup numerical thresholds
-7559- type_latticepoint_update: Could not generate lattice points
-7558- xtb_calculator_singlepoint: Electronic structure method terminated
-7557- scf: Setup of Coulomb evaluator failed
-7556- type_coulomb_setupBoundaryConditions: Could not setup numerical thresholds
-7555- type_latticepoint_update: Could not generate lattice points
-7554- xtb_calculator_singlepoint: Electronic structure method terminated
-7553- scf: Setup of Coulomb evaluator failed
-7552- type_coulomb_setupBoundaryConditions: Could not setup numerical thresholds
-7551- type_latticepoint_update: Could not generate lattice points
-7550- xtb_calculator_singlepoint: Electronic structure method terminated
-7549- scf: Setup of Coulomb evaluator failed
-7548- type_coulomb_setupBoundaryConditions: Could not setup numerical thresholds
-7547- type_latticepoint_update: Could not generate lattice points
-7546- xtb_calculator_singlepoint: Electronic structure method terminated
-7545- scf: Setup of Coulomb evaluator failed
-7544- type_coulomb_setupBoundaryConditions: Could not setup numerical thresholds
-7543- type_latticepoint_update: Could not generate lattice points
-7542- xtb_calculator_singlepoint: Electronic structure method terminated
-7541- scf: Setup of Coulomb evaluator failed
-7540- type_coulomb_setupBoundaryConditions: Could not setup numerical thresholds
-7539- type_latticepoint_update: Could not generate lattice points
-7538- xtb_calculator_singlepoint: Electronic structure method terminated
-7537- scf: Setup of Coulomb evaluator failed
-7536- type_coulomb_setupBoundaryConditions: Could not setup numerical thresholds
-7535- type_latticepoint_update: Could not generate lattice points
-7534- xtb_calculator_singlepoint: Electronic structure method terminated
-7533- scf: Setup of Coulomb evaluator failed
-7532- type_coulomb_setupBoundaryConditions: Could not setup numerical thresholds
-7531- type_latticepoint_update: Could not generate lattice points
-7530- xtb_calculator_singlepoint: Electronic structure method terminated
-7529- scf: Setup of Coulomb evaluator failed
-7528- type_coulomb_setupBoundaryConditions: Could not setup numerical thresholds
-7527- type_latticepoint_update: Could not generate lattice points
-7526- xtb_calculator_singlepoint: Electronic structure method terminated
-7525- scf: Setup of Coulomb evaluator failed
-7524- type_coulomb_setupBoundaryConditions: Could not setup numerical thresholds
-7523- type_latticepoint_update: Could not generate lattice points
-7522- xtb_calculator_singlepoint: Electronic structure method terminated
-7521- scf: Setup of Coulomb evaluator failed
-7520- type_coulomb_setupBoundaryConditions: Could not setup numerical thresholds
-7519- type_latticepoint_update: Could not generate lattice points
-7518- xtb_calculator_singlepoint: Electronic structure method terminated
-7517- scf: Setup of Coulomb evaluator failed
-7516- type_coulomb_setupBoundaryConditions: Could not setup numerical thresholds
-7515- type_latticepoint_update: Could not generate lattice points
-7514- xtb_calculator_singlepoint: Electronic structure method terminated
-7513- scf: Setup of Coulomb evaluator failed
-7512- type_coulomb_setupBoundaryConditions: Could not setup numerical thresholds
-7511- type_latticepoint_update: Could not generate lattice points
-7510- xtb_calculator_singlepoint: Electronic structure method terminated
-7509- scf: Setup of Coulomb evaluator failed
-7508- type_coulomb_setupBoundaryConditions: Could not setup numerical thresholds
-7507- type_latticepoint_update: Could not generate lattice points
-7506- xtb_calculator_singlepoint: Electronic structure method terminated
-7505- scf: Setup of Coulomb evaluator failed
-7504- type_coulomb_setupBoundaryConditions: Could not setup numerical thresholds
-7503- type_latticepoint_update: Could not generate lattice points
-7502- xtb_calculator_singlepoint: Electronic structure method terminated
-7501- scf: Setup of Coulomb evaluator failed
-7500- type_coulomb_setupBoundaryConditions: Could not setup numerical thresholds
-7499- type_latticepoint_update: Could not generate lattice points
-7498- xtb_calculator_singlepoint: Electronic structure method terminated
-7497- scf: Setup of Coulomb evaluator failed
-7496- type_coulomb_setupBoundaryConditions: Could not setup numerical thresholds
-7495- type_latticepoint_update: Could not generate lattice points
-7494- xtb_calculator_singlepoint: Electronic structure method terminated
-7493- scf: Setup of Coulomb evaluator failed
-7492- type_coulomb_setupBoundaryConditions: Could not setup numerical thresholds
-7491- type_latticepoint_update: Could not generate lattice points
-7490- xtb_calculator_singlepoint: Electronic structure method terminated
-7489- scf: Setup of Coulomb evaluator failed
-7488- type_coulomb_setupBoundaryConditions: Could not setup numerical thresholds
-7487- type_latticepoint_update: Could not generate lattice points
-7486- xtb_calculator_singlepoint: Electronic structure method terminated
-7485- scf: Setup of Coulomb evaluator failed
-7484- type_coulomb_setupBoundaryConditions: Could not setup numerical thresholds
-7483- type_latticepoint_update: Could not generate lattice points
-7482- xtb_calculator_singlepoint: Electronic structure method terminated
-7481- scf: Setup of Coulomb evaluator failed
-7480- type_coulomb_setupBoundaryConditions: Could not setup numerical thresholds
-7479- type_latticepoint_update: Could not generate lattice points
-7478- xtb_calculator_singlepoint: Electronic structure method terminated
-7477- scf: Setup of Coulomb evaluator failed
-7476- type_coulomb_setupBoundaryConditions: Could not setup numerical thresholds
-7475- type_latticepoint_update: Could not generate lattice points
-7474- xtb_calculator_singlepoint: Electronic structure method terminated
-7473- scf: Setup of Coulomb evaluator failed
-7472- type_coulomb_setupBoundaryConditions: Could not setup numerical thresholds
-7471- type_latticepoint_update: Could not generate lattice points
-7470- xtb_calculator_singlepoint: Electronic structure method terminated
-7469- scf: Setup of Coulomb evaluator failed
-7468- type_coulomb_setupBoundaryConditions: Could not setup numerical thresholds
-7467- type_latticepoint_update: Could not generate lattice points
-7466- xtb_calculator_singlepoint: Electronic structure method terminated
-7465- scf: Setup of Coulomb evaluator failed
-7464- type_coulomb_setupBoundaryConditions: Could not setup numerical thresholds
-7463- type_latticepoint_update: Could not generate lattice points
-7462- xtb_calculator_singlepoint: Electronic structure method terminated
-7461- scf: Setup of Coulomb evaluator failed
-7460- type_coulomb_setupBoundaryConditions: Could not setup numerical thresholds
-7459- type_latticepoint_update: Could not generate lattice points
-7458- xtb_calculator_singlepoint: Electronic structure method terminated
-7457- scf: Setup of Coulomb evaluator failed
-7456- type_coulomb_setupBoundaryConditions: Could not setup numerical thresholds
-7455- type_latticepoint_update: Could not generate lattice points
-7454- xtb_calculator_singlepoint: Electronic structure method terminated
-7453- scf: Setup of Coulomb evaluator failed
-7452- type_coulomb_setupBoundaryConditions: Could not setup numerical thresholds
-7451- type_latticepoint_update: Could not generate lattice points
-7450- xtb_calculator_singlepoint: Electronic structure method terminated
-7449- scf: Setup of Coulomb evaluator failed
-7448- type_coulomb_setupBoundaryConditions: Could not setup numerical thresholds
-7447- type_latticepoint_update: Could not generate lattice points
-7446- xtb_calculator_singlepoint: Electronic structure method terminated
-7445- scf: Setup of Coulomb evaluator failed
-7444- type_coulomb_setupBoundaryConditions: Could not setup numerical thresholds
-7443- type_latticepoint_update: Could not generate lattice points
-7442- xtb_calculator_singlepoint: Electronic structure method terminated
-7441- scf: Setup of Coulomb evaluator failed
-7440- type_coulomb_setupBoundaryConditions: Could not setup numerical thresholds
-7439- type_latticepoint_update: Could not generate lattice points
-7438- xtb_calculator_singlepoint: Electronic structure method terminated
-7437- scf: Setup of Coulomb evaluator failed
-7436- type_coulomb_setupBoundaryConditions: Could not setup numerical thresholds
-7435- type_latticepoint_update: Could not generate lattice points
-7434- xtb_calculator_singlepoint: Electronic structure method terminated
-7433- scf: Setup of Coulomb evaluator failed
-7432- type_coulomb_setupBoundaryConditions: Could not setup numerical thresholds
-7431- type_latticepoint_update: Could not generate lattice points
-7430- xtb_calculator_singlepoint: Electronic structure method terminated
-7429- scf: Setup of Coulomb evaluator failed
-7428- type_coulomb_setupBoundaryConditions: Could not setup numerical thresholds
-7427- type_latticepoint_update: Could not generate lattice points
-7426- xtb_calculator_singlepoint: Electronic structure method terminated
-7425- scf: Setup of Coulomb evaluator failed
-7424- type_coulomb_setupBoundaryConditions: Could not setup numerical thresholds
-7423- type_latticepoint_update: Could not generate lattice points
-7422- xtb_calculator_singlepoint: Electronic structure method terminated
-7421- scf: Setup of Coulomb evaluator failed
-7420- type_coulomb_setupBoundaryConditions: Could not setup numerical thresholds
-7419- type_latticepoint_update: Could not generate lattice points
-7418- xtb_calculator_singlepoint: Electronic structure method terminated
-7417- scf: Setup of Coulomb evaluator failed
-7416- type_coulomb_setupBoundaryConditions: Could not setup numerical thresholds
-7415- type_latticepoint_update: Could not generate lattice points
-7414- xtb_calculator_singlepoint: Electronic structure method terminated
-7413- scf: Setup of Coulomb evaluator failed
-7412- type_coulomb_setupBoundaryConditions: Could not setup numerical thresholds
-7411- type_latticepoint_update: Could not generate lattice points
-7410- xtb_calculator_singlepoint: Electronic structure method terminated
-7409- scf: Setup of Coulomb evaluator failed
-7408- type_coulomb_setupBoundaryConditions: Could not setup numerical thresholds
-7407- type_latticepoint_update: Could not generate lattice points
-7406- xtb_calculator_singlepoint: Electronic structure method terminated
-7405- scf: Setup of Coulomb evaluator failed
-7404- type_coulomb_setupBoundaryConditions: Could not setup numerical thresholds
-7403- type_latticepoint_update: Could not generate lattice points
-7402- xtb_calculator_singlepoint: Electronic structure method terminated
-7401- scf: Setup of Coulomb evaluator failed
-7400- type_coulomb_setupBoundaryConditions: Could not setup numerical thresholds
-7399- type_latticepoint_update: Could not generate lattice points
-7398- xtb_calculator_singlepoint: Electronic structure method terminated
-7397- scf: Setup of Coulomb evaluator failed
-7396- type_coulomb_setupBoundaryConditions: Could not setup numerical thresholds
-7395- type_latticepoint_update: Could not generate lattice points
-7394- xtb_calculator_singlepoint: Electronic structure method terminated
-7393- scf: Setup of Coulomb evaluator failed
-7392- type_coulomb_setupBoundaryConditions: Could not setup numerical thresholds
-7391- type_latticepoint_update: Could not generate lattice points
-7390- xtb_calculator_singlepoint: Electronic structure method terminated
-7389- scf: Setup of Coulomb evaluator failed
-7388- type_coulomb_setupBoundaryConditions: Could not setup numerical thresholds
-7387- type_latticepoint_update: Could not generate lattice points
-7386- xtb_calculator_singlepoint: Electronic structure method terminated
-7385- scf: Setup of Coulomb evaluator failed
-7384- type_coulomb_setupBoundaryConditions: Could not setup numerical thresholds
-7383- type_latticepoint_update: Could not generate lattice points
-7382- xtb_calculator_singlepoint: Electronic structure method terminated
-7381- scf: Setup of Coulomb evaluator failed
-7380- type_coulomb_setupBoundaryConditions: Could not setup numerical thresholds
-7379- type_latticepoint_update: Could not generate lattice points
-7378- xtb_calculator_singlepoint: Electronic structure method terminated
-7377- scf: Setup of Coulomb evaluator failed
-7376- type_coulomb_setupBoundaryConditions: Could not setup numerical thresholds
-7375- type_latticepoint_update: Could not generate lattice points
-7374- xtb_calculator_singlepoint: Electronic structure method terminated
-7373- scf: Setup of Coulomb evaluator failed
-7372- type_coulomb_setupBoundaryConditions: Could not setup numerical thresholds
-7371- type_latticepoint_update: Could not generate lattice points
-7370- xtb_calculator_singlepoint: Electronic structure method terminated
-7369- scf: Setup of Coulomb evaluator failed
-7368- type_coulomb_setupBoundaryConditions: Could not setup numerical thresholds
-7367- type_latticepoint_update: Could not generate lattice points
-7366- xtb_calculator_singlepoint: Electronic structure method terminated
-7365- scf: Setup of Coulomb evaluator failed
-7364- type_coulomb_setupBoundaryConditions: Could not setup numerical thresholds
-7363- type_latticepoint_update: Could not generate lattice points
-7362- xtb_calculator_singlepoint: Electronic structure method terminated
-7361- scf: Setup of Coulomb evaluator failed
-7360- type_coulomb_setupBoundaryConditions: Could not setup numerical thresholds
-7359- type_latticepoint_update: Could not generate lattice points
-7358- xtb_calculator_singlepoint: Electronic structure method terminated
-7357- scf: Setup of Coulomb evaluator failed
-7356- type_coulomb_setupBoundaryConditions: Could not setup numerical thresholds
-7355- type_latticepoint_update: Could not generate lattice points
-7354- xtb_calculator_singlepoint: Electronic structure method terminated
-7353- scf: Setup of Coulomb evaluator failed
-7352- type_coulomb_setupBoundaryConditions: Could not setup numerical thresholds
-7351- type_latticepoint_update: Could not generate lattice points
-7350- xtb_calculator_singlepoint: Electronic structure method terminated
-7349- scf: Setup of Coulomb evaluator failed
-7348- type_coulomb_setupBoundaryConditions: Could not setup numerical thresholds
-7347- type_latticepoint_update: Could not generate lattice points
-7346- xtb_calculator_singlepoint: Electronic structure method terminated
-7345- scf: Setup of Coulomb evaluator failed
-7344- type_coulomb_setupBoundaryConditions: Could not setup numerical thresholds
-7343- type_latticepoint_update: Could not generate lattice points
-7342- xtb_calculator_singlepoint: Electronic structure method terminated
-7341- scf: Setup of Coulomb evaluator failed
-7340- type_coulomb_setupBoundaryConditions: Could not setup numerical thresholds
-7339- type_latticepoint_update: Could not generate lattice points
-7338- xtb_calculator_singlepoint: Electronic structure method terminated
-7337- scf: Setup of Coulomb evaluator failed
-7336- type_coulomb_setupBoundaryConditions: Could not setup numerical thresholds
-7335- type_latticepoint_update: Could not generate lattice points
-7334- xtb_calculator_singlepoint: Electronic structure method terminated
-7333- scf: Setup of Coulomb evaluator failed
-7332- type_coulomb_setupBoundaryConditions: Could not setup numerical thresholds
-7331- type_latticepoint_update: Could not generate lattice points
-7330- xtb_calculator_singlepoint: Electronic structure method terminated
-7329- scf: Setup of Coulomb evaluator failed
-7328- type_coulomb_setupBoundaryConditions: Could not setup numerical thresholds
-7327- type_latticepoint_update: Could not generate lattice points
-7326- xtb_calculator_singlepoint: Electronic structure method terminated
-7325- scf: Setup of Coulomb evaluator failed
-7324- type_coulomb_setupBoundaryConditions: Could not setup numerical thresholds
-7323- type_latticepoint_update: Could not generate lattice points
-7322- xtb_calculator_singlepoint: Electronic structure method terminated
-7321- scf: Setup of Coulomb evaluator failed
-7320- type_coulomb_setupBoundaryConditions: Could not setup numerical thresholds
-7319- type_latticepoint_update: Could not generate lattice points
-7318- xtb_calculator_singlepoint: Electronic structure method terminated
-7317- scf: Setup of Coulomb evaluator failed
-7316- type_coulomb_setupBoundaryConditions: Could not setup numerical thresholds
-7315- type_latticepoint_update: Could not generate lattice points
-7314- xtb_calculator_singlepoint: Electronic structure method terminated
-7313- scf: Setup of Coulomb evaluator failed
-7312- type_coulomb_setupBoundaryConditions: Could not setup numerical thresholds
-7311- type_latticepoint_update: Could not generate lattice points
-7310- xtb_calculator_singlepoint: Electronic structure method terminated
-7309- scf: Setup of Coulomb evaluator failed
-7308- type_coulomb_setupBoundaryConditions: Could not setup numerical thresholds
-7307- type_latticepoint_update: Could not generate lattice points
-7306- xtb_calculator_singlepoint: Electronic structure method terminated
-7305- scf: Setup of Coulomb evaluator failed
-7304- type_coulomb_setupBoundaryConditions: Could not setup numerical thresholds
-7303- type_latticepoint_update: Could not generate lattice points
-7302- xtb_calculator_singlepoint: Electronic structure method terminated
-7301- scf: Setup of Coulomb evaluator failed
-7300- type_coulomb_setupBoundaryConditions: Could not setup numerical thresholds
-7299- type_latticepoint_update: Could not generate lattice points
-7298- xtb_calculator_singlepoint: Electronic structure method terminated
-7297- scf: Setup of Coulomb evaluator failed
-7296- type_coulomb_setupBoundaryConditions: Could not setup numerical thresholds
-7295- type_latticepoint_update: Could not generate lattice points
-7294- xtb_calculator_singlepoint: Electronic structure method terminated
-7293- scf: Setup of Coulomb evaluator failed
-7292- type_coulomb_setupBoundaryConditions: Could not setup numerical thresholds
-7291- type_latticepoint_update: Could not generate lattice points
-7290- xtb_calculator_singlepoint: Electronic structure method terminated
-7289- scf: Setup of Coulomb evaluator failed
-7288- type_coulomb_setupBoundaryConditions: Could not setup numerical thresholds
-7287- type_latticepoint_update: Could not generate lattice points
-7286- xtb_calculator_singlepoint: Electronic structure method terminated
-7285- scf: Setup of Coulomb evaluator failed
-7284- type_coulomb_setupBoundaryConditions: Could not setup numerical thresholds
-7283- type_latticepoint_update: Could not generate lattice points
-7282- xtb_calculator_singlepoint: Electronic structure method terminated
-7281- scf: Setup of Coulomb evaluator failed
-7280- type_coulomb_setupBoundaryConditions: Could not setup numerical thresholds
-7279- type_latticepoint_update: Could not generate lattice points
-7278- xtb_calculator_singlepoint: Electronic structure method terminated
-7277- scf: Setup of Coulomb evaluator failed
-7276- type_coulomb_setupBoundaryConditions: Could not setup numerical thresholds
-7275- type_latticepoint_update: Could not generate lattice points
-7274- xtb_calculator_singlepoint: Electronic structure method terminated
-7273- scf: Setup of Coulomb evaluator failed
-7272- type_coulomb_setupBoundaryConditions: Could not setup numerical thresholds
-7271- type_latticepoint_update: Could not generate lattice points
-7270- xtb_calculator_singlepoint: Electronic structure method terminated
-7269- scf: Setup of Coulomb evaluator failed
-7268- type_coulomb_setupBoundaryConditions: Could not setup numerical thresholds
-7267- type_latticepoint_update: Could not generate lattice points
-7266- xtb_calculator_singlepoint: Electronic structure method terminated
-7265- scf: Setup of Coulomb evaluator failed
-7264- type_coulomb_setupBoundaryConditions: Could not setup numerical thresholds
-7263- type_latticepoint_update: Could not generate lattice points
-7262- xtb_calculator_singlepoint: Electronic structure method terminated
-7261- scf: Setup of Coulomb evaluator failed
-7260- type_coulomb_setupBoundaryConditions: Could not setup numerical thresholds
-7259- type_latticepoint_update: Could not generate lattice points
-7258- xtb_calculator_singlepoint: Electronic structure method terminated
-7257- scf: Setup of Coulomb evaluator failed
-7256- type_coulomb_setupBoundaryConditions: Could not setup numerical thresholds
-7255- type_latticepoint_update: Could not generate lattice points
-7254- xtb_calculator_singlepoint: Electronic structure method terminated
-7253- scf: Setup of Coulomb evaluator failed
-7252- type_coulomb_setupBoundaryConditions: Could not setup numerical thresholds
-7251- type_latticepoint_update: Could not generate lattice points
-7250- xtb_calculator_singlepoint: Electronic structure method terminated
-7249- scf: Setup of Coulomb evaluator failed
-7248- type_coulomb_setupBoundaryConditions: Could not setup numerical thresholds
-7247- type_latticepoint_update: Could not generate lattice points
-7246- xtb_calculator_singlepoint: Electronic structure method terminated
-7245- scf: Setup of Coulomb evaluator failed
-7244- type_coulomb_setupBoundaryConditions: Could not setup numerical thresholds
-7243- type_latticepoint_update: Could not generate lattice points
-7242- xtb_calculator_singlepoint: Electronic structure method terminated
-7241- scf: Setup of Coulomb evaluator failed
-7240- type_coulomb_setupBoundaryConditions: Could not setup numerical thresholds
-7239- type_latticepoint_update: Could not generate lattice points
-7238- xtb_calculator_singlepoint: Electronic structure method terminated
-7237- scf: Setup of Coulomb evaluator failed
-7236- type_coulomb_setupBoundaryConditions: Could not setup numerical thresholds
-7235- type_latticepoint_update: Could not generate lattice points
-7234- xtb_calculator_singlepoint: Electronic structure method terminated
-7233- scf: Setup of Coulomb evaluator failed
-7232- type_coulomb_setupBoundaryConditions: Could not setup numerical thresholds
-7231- type_latticepoint_update: Could not generate lattice points
-7230- xtb_calculator_singlepoint: Electronic structure method terminated
-7229- scf: Setup of Coulomb evaluator failed
-7228- type_coulomb_setupBoundaryConditions: Could not setup numerical thresholds
-7227- type_latticepoint_update: Could not generate lattice points
-7226- xtb_calculator_singlepoint: Electronic structure method terminated
-7225- scf: Setup of Coulomb evaluator failed
-7224- type_coulomb_setupBoundaryConditions: Could not setup numerical thresholds
-7223- type_latticepoint_update: Could not generate lattice points
-7222- xtb_calculator_singlepoint: Electronic structure method terminated
-7221- scf: Setup of Coulomb evaluator failed
-7220- type_coulomb_setupBoundaryConditions: Could not setup numerical thresholds
-7219- type_latticepoint_update: Could not generate lattice points
-7218- xtb_calculator_singlepoint: Electronic structure method terminated
-7217- scf: Setup of Coulomb evaluator failed
-7216- type_coulomb_setupBoundaryConditions: Could not setup numerical thresholds
-7215- type_latticepoint_update: Could not generate lattice points
-7214- xtb_calculator_singlepoint: Electronic structure method terminated
-7213- scf: Setup of Coulomb evaluator failed
-7212- type_coulomb_setupBoundaryConditions: Could not setup numerical thresholds
-7211- type_latticepoint_update: Could not generate lattice points
-7210- xtb_calculator_singlepoint: Electronic structure method terminated
-7209- scf: Setup of Coulomb evaluator failed
-7208- type_coulomb_setupBoundaryConditions: Could not setup numerical thresholds
-7207- type_latticepoint_update: Could not generate lattice points
-7206- xtb_calculator_singlepoint: Electronic structure method terminated
-7205- scf: Setup of Coulomb evaluator failed
-7204- type_coulomb_setupBoundaryConditions: Could not setup numerical thresholds
-7203- type_latticepoint_update: Could not generate lattice points
-7202- xtb_calculator_singlepoint: Electronic structure method terminated
-7201- scf: Setup of Coulomb evaluator failed
-7200- type_coulomb_setupBoundaryConditions: Could not setup numerical thresholds
-7199- type_latticepoint_update: Could not generate lattice points
-7198- xtb_calculator_singlepoint: Electronic structure method terminated
-7197- scf: Setup of Coulomb evaluator failed
-7196- type_coulomb_setupBoundaryConditions: Could not setup numerical thresholds
-7195- type_latticepoint_update: Could not generate lattice points
-7194- xtb_calculator_singlepoint: Electronic structure method terminated
-7193- scf: Setup of Coulomb evaluator failed
-7192- type_coulomb_setupBoundaryConditions: Could not setup numerical thresholds
-7191- type_latticepoint_update: Could not generate lattice points
-7190- xtb_calculator_singlepoint: Electronic structure method terminated
-7189- scf: Setup of Coulomb evaluator failed
-7188- type_coulomb_setupBoundaryConditions: Could not setup numerical thresholds
-7187- type_latticepoint_update: Could not generate lattice points
-7186- xtb_calculator_singlepoint: Electronic structure method terminated
-7185- scf: Setup of Coulomb evaluator failed
-7184- type_coulomb_setupBoundaryConditions: Could not setup numerical thresholds
-7183- type_latticepoint_update: Could not generate lattice points
-7182- xtb_calculator_singlepoint: Electronic structure method terminated
-7181- scf: Setup of Coulomb evaluator failed
-7180- type_coulomb_setupBoundaryConditions: Could not setup numerical thresholds
-7179- type_latticepoint_update: Could not generate lattice points
-7178- xtb_calculator_singlepoint: Electronic structure method terminated
-7177- scf: Setup of Coulomb evaluator failed
-7176- type_coulomb_setupBoundaryConditions: Could not setup numerical thresholds
-7175- type_latticepoint_update: Could not generate lattice points
-7174- xtb_calculator_singlepoint: Electronic structure method terminated
-7173- scf: Setup of Coulomb evaluator failed
-7172- type_coulomb_setupBoundaryConditions: Could not setup numerical thresholds
-7171- type_latticepoint_update: Could not generate lattice points
-7170- xtb_calculator_singlepoint: Electronic structure method terminated
-7169- scf: Setup of Coulomb evaluator failed
-7168- type_coulomb_setupBoundaryConditions: Could not setup numerical thresholds
-7167- type_latticepoint_update: Could not generate lattice points
-7166- xtb_calculator_singlepoint: Electronic structure method terminated
-7165- scf: Setup of Coulomb evaluator failed
-7164- type_coulomb_setupBoundaryConditions: Could not setup numerical thresholds
-7163- type_latticepoint_update: Could not generate lattice points
-7162- xtb_calculator_singlepoint: Electronic structure method terminated
-7161- scf: Setup of Coulomb evaluator failed
-7160- type_coulomb_setupBoundaryConditions: Could not setup numerical thresholds
-7159- type_latticepoint_update: Could not generate lattice points
-7158- xtb_calculator_singlepoint: Electronic structure method terminated
-7157- scf: Setup of Coulomb evaluator failed
-7156- type_coulomb_setupBoundaryConditions: Could not setup numerical thresholds
-7155- type_latticepoint_update: Could not generate lattice points
-7154- xtb_calculator_singlepoint: Electronic structure method terminated
-7153- scf: Setup of Coulomb evaluator failed
-7152- type_coulomb_setupBoundaryConditions: Could not setup numerical thresholds
-7151- type_latticepoint_update: Could not generate lattice points
-7150- xtb_calculator_singlepoint: Electronic structure method terminated
-7149- scf: Setup of Coulomb evaluator failed
-7148- type_coulomb_setupBoundaryConditions: Could not setup numerical thresholds
-7147- type_latticepoint_update: Could not generate lattice points
-7146- xtb_calculator_singlepoint: Electronic structure method terminated
-7145- scf: Setup of Coulomb evaluator failed
-7144- type_coulomb_setupBoundaryConditions: Could not setup numerical thresholds
-7143- type_latticepoint_update: Could not generate lattice points
-7142- xtb_calculator_singlepoint: Electronic structure method terminated
-7141- scf: Setup of Coulomb evaluator failed
-7140- type_coulomb_setupBoundaryConditions: Could not setup numerical thresholds
-7139- type_latticepoint_update: Could not generate lattice points
-7138- xtb_calculator_singlepoint: Electronic structure method terminated
-7137- scf: Setup of Coulomb evaluator failed
-7136- type_coulomb_setupBoundaryConditions: Could not setup numerical thresholds
-7135- type_latticepoint_update: Could not generate lattice points
-7134- xtb_calculator_singlepoint: Electronic structure method terminated
-7133- scf: Setup of Coulomb evaluator failed
-7132- type_coulomb_setupBoundaryConditions: Could not setup numerical thresholds
-7131- type_latticepoint_update: Could not generate lattice points
-7130- xtb_calculator_singlepoint: Electronic structure method terminated
-7129- scf: Setup of Coulomb evaluator failed
-7128- type_coulomb_setupBoundaryConditions: Could not setup numerical thresholds
-7127- type_latticepoint_update: Could not generate lattice points
-7126- xtb_calculator_singlepoint: Electronic structure method terminated
-7125- scf: Setup of Coulomb evaluator failed
-7124- type_coulomb_setupBoundaryConditions: Could not setup numerical thresholds
-7123- type_latticepoint_update: Could not generate lattice points
-7122- xtb_calculator_singlepoint: Electronic structure method terminated
-7121- scf: Setup of Coulomb evaluator failed
-7120- type_coulomb_setupBoundaryConditions: Could not setup numerical thresholds
-7119- type_latticepoint_update: Could not generate lattice points
-7118- xtb_calculator_singlepoint: Electronic structure method terminated
-7117- scf: Setup of Coulomb evaluator failed
-7116- type_coulomb_setupBoundaryConditions: Could not setup numerical thresholds
-7115- type_latticepoint_update: Could not generate lattice points
-7114- xtb_calculator_singlepoint: Electronic structure method terminated
-7113- scf: Setup of Coulomb evaluator failed
-7112- type_coulomb_setupBoundaryConditions: Could not setup numerical thresholds
-7111- type_latticepoint_update: Could not generate lattice points
-7110- xtb_calculator_singlepoint: Electronic structure method terminated
-7109- scf: Setup of Coulomb evaluator failed
-7108- type_coulomb_setupBoundaryConditions: Could not setup numerical thresholds
-7107- type_latticepoint_update: Could not generate lattice points
-7106- xtb_calculator_singlepoint: Electronic structure method terminated
-7105- scf: Setup of Coulomb evaluator failed
-7104- type_coulomb_setupBoundaryConditions: Could not setup numerical thresholds
-7103- type_latticepoint_update: Could not generate lattice points
-7102- xtb_calculator_singlepoint: Electronic structure method terminated
-7101- scf: Setup of Coulomb evaluator failed
-7100- type_coulomb_setupBoundaryConditions: Could not setup numerical thresholds
-7099- type_latticepoint_update: Could not generate lattice points
-7098- xtb_calculator_singlepoint: Electronic structure method terminated
-7097- scf: Setup of Coulomb evaluator failed
-7096- type_coulomb_setupBoundaryConditions: Could not setup numerical thresholds
-7095- type_latticepoint_update: Could not generate lattice points
-7094- xtb_calculator_singlepoint: Electronic structure method terminated
-7093- scf: Setup of Coulomb evaluator failed
-7092- type_coulomb_setupBoundaryConditions: Could not setup numerical thresholds
-7091- type_latticepoint_update: Could not generate lattice points
-7090- xtb_calculator_singlepoint: Electronic structure method terminated
-7089- scf: Setup of Coulomb evaluator failed
-7088- type_coulomb_setupBoundaryConditions: Could not setup numerical thresholds
-7087- type_latticepoint_update: Could not generate lattice points
-7086- xtb_calculator_singlepoint: Electronic structure method terminated
-7085- scf: Setup of Coulomb evaluator failed
-7084- type_coulomb_setupBoundaryConditions: Could not setup numerical thresholds
-7083- type_latticepoint_update: Could not generate lattice points
-7082- xtb_calculator_singlepoint: Electronic structure method terminated
-7081- scf: Setup of Coulomb evaluator failed
-7080- type_coulomb_setupBoundaryConditions: Could not setup numerical thresholds
-7079- type_latticepoint_update: Could not generate lattice points
-7078- xtb_calculator_singlepoint: Electronic structure method terminated
-7077- scf: Setup of Coulomb evaluator failed
-7076- type_coulomb_setupBoundaryConditions: Could not setup numerical thresholds
-7075- type_latticepoint_update: Could not generate lattice points
-7074- xtb_calculator_singlepoint: Electronic structure method terminated
-7073- scf: Setup of Coulomb evaluator failed
-7072- type_coulomb_setupBoundaryConditions: Could not setup numerical thresholds
-7071- type_latticepoint_update: Could not generate lattice points
-7070- xtb_calculator_singlepoint: Electronic structure method terminated
-7069- scf: Setup of Coulomb evaluator failed
-7068- type_coulomb_setupBoundaryConditions: Could not setup numerical thresholds
-7067- type_latticepoint_update: Could not generate lattice points
-7066- xtb_calculator_singlepoint: Electronic structure method terminated
-7065- scf: Setup of Coulomb evaluator failed
-7064- type_coulomb_setupBoundaryConditions: Could not setup numerical thresholds
-7063- type_latticepoint_update: Could not generate lattice points
-7062- xtb_calculator_singlepoint: Electronic structure method terminated
-7061- scf: Setup of Coulomb evaluator failed
-7060- type_coulomb_setupBoundaryConditions: Could not setup numerical thresholds
-7059- type_latticepoint_update: Could not generate lattice points
-7058- xtb_calculator_singlepoint: Electronic structure method terminated
-7057- scf: Setup of Coulomb evaluator failed
-7056- type_coulomb_setupBoundaryConditions: Could not setup numerical thresholds
-7055- type_latticepoint_update: Could not generate lattice points
-7054- xtb_calculator_singlepoint: Electronic structure method terminated
-7053- scf: Setup of Coulomb evaluator failed
-7052- type_coulomb_setupBoundaryConditions: Could not setup numerical thresholds
-7051- type_latticepoint_update: Could not generate lattice points
-7050- xtb_calculator_singlepoint: Electronic structure method terminated
-7049- scf: Setup of Coulomb evaluator failed
-7048- type_coulomb_setupBoundaryConditions: Could not setup numerical thresholds
-7047- type_latticepoint_update: Could not generate lattice points
-7046- xtb_calculator_singlepoint: Electronic structure method terminated
-7045- scf: Setup of Coulomb evaluator failed
-7044- type_coulomb_setupBoundaryConditions: Could not setup numerical thresholds
-7043- type_latticepoint_update: Could not generate lattice points
-7042- xtb_calculator_singlepoint: Electronic structure method terminated
-7041- scf: Setup of Coulomb evaluator failed
-7040- type_coulomb_setupBoundaryConditions: Could not setup numerical thresholds
-7039- type_latticepoint_update: Could not generate lattice points
-7038- xtb_calculator_singlepoint: Electronic structure method terminated
-7037- scf: Setup of Coulomb evaluator failed
-7036- type_coulomb_setupBoundaryConditions: Could not setup numerical thresholds
-7035- type_latticepoint_update: Could not generate lattice points
-7034- xtb_calculator_singlepoint: Electronic structure method terminated
-7033- scf: Setup of Coulomb evaluator failed
-7032- type_coulomb_setupBoundaryConditions: Could not setup numerical thresholds
-7031- type_latticepoint_update: Could not generate lattice points
-7030- xtb_calculator_singlepoint: Electronic structure method terminated
-7029- scf: Setup of Coulomb evaluator failed
-7028- type_coulomb_setupBoundaryConditions: Could not setup numerical thresholds
-7027- type_latticepoint_update: Could not generate lattice points
-7026- xtb_calculator_singlepoint: Electronic structure method terminated
-7025- scf: Setup of Coulomb evaluator failed
-7024- type_coulomb_setupBoundaryConditions: Could not setup numerical thresholds
-7023- type_latticepoint_update: Could not generate lattice points
-7022- xtb_calculator_singlepoint: Electronic structure method terminated
-7021- scf: Setup of Coulomb evaluator failed
-7020- type_coulomb_setupBoundaryConditions: Could not setup numerical thresholds
-7019- type_latticepoint_update: Could not generate lattice points
-7018- xtb_calculator_singlepoint: Electronic structure method terminated
-7017- scf: Setup of Coulomb evaluator failed
-7016- type_coulomb_setupBoundaryConditions: Could not setup numerical thresholds
-7015- type_latticepoint_update: Could not generate lattice points
-7014- xtb_calculator_singlepoint: Electronic structure method terminated
-7013- scf: Setup of Coulomb evaluator failed
-7012- type_coulomb_setupBoundaryConditions: Could not setup numerical thresholds
-7011- type_latticepoint_update: Could not generate lattice points
-7010- xtb_calculator_singlepoint: Electronic structure method terminated
-7009- scf: Setup of Coulomb evaluator failed
-7008- type_coulomb_setupBoundaryConditions: Could not setup numerical thresholds
-7007- type_latticepoint_update: Could not generate lattice points
-7006- xtb_calculator_singlepoint: Electronic structure method terminated
-7005- scf: Setup of Coulomb evaluator failed
-7004- type_coulomb_setupBoundaryConditions: Could not setup numerical thresholds
-7003- type_latticepoint_update: Could not generate lattice points
-7002- xtb_calculator_singlepoint: Electronic structure method terminated
-7001- scf: Setup of Coulomb evaluator failed
-7000- type_coulomb_setupBoundaryConditions: Could not setup numerical thresholds
-6999- type_latticepoint_update: Could not generate lattice points
-6998- xtb_calculator_singlepoint: Electronic structure method terminated
-6997- scf: Setup of Coulomb evaluator failed
-6996- type_coulomb_setupBoundaryConditions: Could not setup numerical thresholds
-6995- type_latticepoint_update: Could not generate lattice points
-6994- xtb_calculator_singlepoint: Electronic structure method terminated
-6993- scf: Setup of Coulomb evaluator failed
-6992- type_coulomb_setupBoundaryConditions: Could not setup numerical thresholds
-6991- type_latticepoint_update: Could not generate lattice points
-6990- xtb_calculator_singlepoint: Electronic structure method terminated
-6989- scf: Setup of Coulomb evaluator failed
-6988- type_coulomb_setupBoundaryConditions: Could not setup numerical thresholds
-6987- type_latticepoint_update: Could not generate lattice points
-6986- xtb_calculator_singlepoint: Electronic structure method terminated
-6985- scf: Setup of Coulomb evaluator failed
-6984- type_coulomb_setupBoundaryConditions: Could not setup numerical thresholds
-6983- type_latticepoint_update: Could not generate lattice points
-6982- xtb_calculator_singlepoint: Electronic structure method terminated
-6981- scf: Setup of Coulomb evaluator failed
-6980- type_coulomb_setupBoundaryConditions: Could not setup numerical thresholds
-6979- type_latticepoint_update: Could not generate lattice points
-6978- xtb_calculator_singlepoint: Electronic structure method terminated
-6977- scf: Setup of Coulomb evaluator failed
-6976- type_coulomb_setupBoundaryConditions: Could not setup numerical thresholds
-6975- type_latticepoint_update: Could not generate lattice points
-6974- xtb_calculator_singlepoint: Electronic structure method terminated
-6973- scf: Setup of Coulomb evaluator failed
-6972- type_coulomb_setupBoundaryConditions: Could not setup numerical thresholds
-6971- type_latticepoint_update: Could not generate lattice points
-6970- xtb_calculator_singlepoint: Electronic structure method terminated
-6969- scf: Setup of Coulomb evaluator failed
-6968- type_coulomb_setupBoundaryConditions: Could not setup numerical thresholds
-6967- type_latticepoint_update: Could not generate lattice points
-6966- xtb_calculator_singlepoint: Electronic structure method terminated
-6965- scf: Setup of Coulomb evaluator failed
-6964- type_coulomb_setupBoundaryConditions: Could not setup numerical thresholds
-6963- type_latticepoint_update: Could not generate lattice points
-6962- xtb_calculator_singlepoint: Electronic structure method terminated
-6961- scf: Setup of Coulomb evaluator failed
-6960- type_coulomb_setupBoundaryConditions: Could not setup numerical thresholds
-6959- type_latticepoint_update: Could not generate lattice points
-6958- xtb_calculator_singlepoint: Electronic structure method terminated
-6957- scf: Setup of Coulomb evaluator failed
-6956- type_coulomb_setupBoundaryConditions: Could not setup numerical thresholds
-6955- type_latticepoint_update: Could not generate lattice points
-6954- xtb_calculator_singlepoint: Electronic structure method terminated
-6953- scf: Setup of Coulomb evaluator failed
-6952- type_coulomb_setupBoundaryConditions: Could not setup numerical thresholds
-6951- type_latticepoint_update: Could not generate lattice points
-6950- xtb_calculator_singlepoint: Electronic structure method terminated
-6949- scf: Setup of Coulomb evaluator failed
-6948- type_coulomb_setupBoundaryConditions: Could not setup numerical thresholds
-6947- type_latticepoint_update: Could not generate lattice points
-6946- xtb_calculator_singlepoint: Electronic structure method terminated
-6945- scf: Setup of Coulomb evaluator failed
-6944- type_coulomb_setupBoundaryConditions: Could not setup numerical thresholds
-6943- type_latticepoint_update: Could not generate lattice points
-6942- xtb_calculator_singlepoint: Electronic structure method terminated
-6941- scf: Setup of Coulomb evaluator failed
-6940- type_coulomb_setupBoundaryConditions: Could not setup numerical thresholds
-6939- type_latticepoint_update: Could not generate lattice points
-6938- xtb_calculator_singlepoint: Electronic structure method terminated
-6937- scf: Setup of Coulomb evaluator failed
-6936- type_coulomb_setupBoundaryConditions: Could not setup numerical thresholds
-6935- type_latticepoint_update: Could not generate lattice points
-6934- xtb_calculator_singlepoint: Electronic structure method terminated
-6933- scf: Setup of Coulomb evaluator failed
-6932- type_coulomb_setupBoundaryConditions: Could not setup numerical thresholds
-6931- type_latticepoint_update: Could not generate lattice points
-6930- xtb_calculator_singlepoint: Electronic structure method terminated
-6929- scf: Setup of Coulomb evaluator failed
-6928- type_coulomb_setupBoundaryConditions: Could not setup numerical thresholds
-6927- type_latticepoint_update: Could not generate lattice points
-6926- xtb_calculator_singlepoint: Electronic structure method terminated
-6925- scf: Setup of Coulomb evaluator failed
-6924- type_coulomb_setupBoundaryConditions: Could not setup numerical thresholds
-6923- type_latticepoint_update: Could not generate lattice points
-6922- xtb_calculator_singlepoint: Electronic structure method terminated
-6921- scf: Setup of Coulomb evaluator failed
-6920- type_coulomb_setupBoundaryConditions: Could not setup numerical thresholds
-6919- type_latticepoint_update: Could not generate lattice points
-6918- xtb_calculator_singlepoint: Electronic structure method terminated
-6917- scf: Setup of Coulomb evaluator failed
-6916- type_coulomb_setupBoundaryConditions: Could not setup numerical thresholds
-6915- type_latticepoint_update: Could not generate lattice points
-6914- xtb_calculator_singlepoint: Electronic structure method terminated
-6913- scf: Setup of Coulomb evaluator failed
-6912- type_coulomb_setupBoundaryConditions: Could not setup numerical thresholds
-6911- type_latticepoint_update: Could not generate lattice points
-6910- xtb_calculator_singlepoint: Electronic structure method terminated
-6909- scf: Setup of Coulomb evaluator failed
-6908- type_coulomb_setupBoundaryConditions: Could not setup numerical thresholds
-6907- type_latticepoint_update: Could not generate lattice points
-6906- xtb_calculator_singlepoint: Electronic structure method terminated
-6905- scf: Setup of Coulomb evaluator failed
-6904- type_coulomb_setupBoundaryConditions: Could not setup numerical thresholds
-6903- type_latticepoint_update: Could not generate lattice points
-6902- xtb_calculator_singlepoint: Electronic structure method terminated
-6901- scf: Setup of Coulomb evaluator failed
-6900- type_coulomb_setupBoundaryConditions: Could not setup numerical thresholds
-6899- type_latticepoint_update: Could not generate lattice points
-6898- xtb_calculator_singlepoint: Electronic structure method terminated
-6897- scf: Setup of Coulomb evaluator failed
-6896- type_coulomb_setupBoundaryConditions: Could not setup numerical thresholds
-6895- type_latticepoint_update: Could not generate lattice points
-6894- xtb_calculator_singlepoint: Electronic structure method terminated
-6893- scf: Setup of Coulomb evaluator failed
-6892- type_coulomb_setupBoundaryConditions: Could not setup numerical thresholds
-6891- type_latticepoint_update: Could not generate lattice points
-6890- xtb_calculator_singlepoint: Electronic structure method terminated
-6889- scf: Setup of Coulomb evaluator failed
-6888- type_coulomb_setupBoundaryConditions: Could not setup numerical thresholds
-6887- type_latticepoint_update: Could not generate lattice points
-6886- xtb_calculator_singlepoint: Electronic structure method terminated
-6885- scf: Setup of Coulomb evaluator failed
-6884- type_coulomb_setupBoundaryConditions: Could not setup numerical thresholds
-6883- type_latticepoint_update: Could not generate lattice points
-6882- xtb_calculator_singlepoint: Electronic structure method terminated
-6881- scf: Setup of Coulomb evaluator failed
-6880- type_coulomb_setupBoundaryConditions: Could not setup numerical thresholds
-6879- type_latticepoint_update: Could not generate lattice points
-6878- xtb_calculator_singlepoint: Electronic structure method terminated
-6877- scf: Setup of Coulomb evaluator failed
-6876- type_coulomb_setupBoundaryConditions: Could not setup numerical thresholds
-6875- type_latticepoint_update: Could not generate lattice points
-6874- xtb_calculator_singlepoint: Electronic structure method terminated
-6873- scf: Setup of Coulomb evaluator failed
-6872- type_coulomb_setupBoundaryConditions: Could not setup numerical thresholds
-6871- type_latticepoint_update: Could not generate lattice points
-6870- xtb_calculator_singlepoint: Electronic structure method terminated
-6869- scf: Setup of Coulomb evaluator failed
-6868- type_coulomb_setupBoundaryConditions: Could not setup numerical thresholds
-6867- type_latticepoint_update: Could not generate lattice points
-6866- xtb_calculator_singlepoint: Electronic structure method terminated
-6865- scf: Setup of Coulomb evaluator failed
-6864- type_coulomb_setupBoundaryConditions: Could not setup numerical thresholds
-6863- type_latticepoint_update: Could not generate lattice points
-6862- xtb_calculator_singlepoint: Electronic structure method terminated
-6861- scf: Setup of Coulomb evaluator failed
-6860- type_coulomb_setupBoundaryConditions: Could not setup numerical thresholds
-6859- type_latticepoint_update: Could not generate lattice points
-6858- xtb_calculator_singlepoint: Electronic structure method terminated
-6857- scf: Setup of Coulomb evaluator failed
-6856- type_coulomb_setupBoundaryConditions: Could not setup numerical thresholds
-6855- type_latticepoint_update: Could not generate lattice points
-6854- xtb_calculator_singlepoint: Electronic structure method terminated
-6853- scf: Setup of Coulomb evaluator failed
-6852- type_coulomb_setupBoundaryConditions: Could not setup numerical thresholds
-6851- type_latticepoint_update: Could not generate lattice points
-6850- xtb_calculator_singlepoint: Electronic structure method terminated
-6849- scf: Setup of Coulomb evaluator failed
-6848- type_coulomb_setupBoundaryConditions: Could not setup numerical thresholds
-6847- type_latticepoint_update: Could not generate lattice points
-6846- xtb_calculator_singlepoint: Electronic structure method terminated
-6845- scf: Setup of Coulomb evaluator failed
-6844- type_coulomb_setupBoundaryConditions: Could not setup numerical thresholds
-6843- type_latticepoint_update: Could not generate lattice points
-6842- xtb_calculator_singlepoint: Electronic structure method terminated
-6841- scf: Setup of Coulomb evaluator failed
-6840- type_coulomb_setupBoundaryConditions: Could not setup numerical thresholds
-6839- type_latticepoint_update: Could not generate lattice points
-6838- xtb_calculator_singlepoint: Electronic structure method terminated
-6837- scf: Setup of Coulomb evaluator failed
-6836- type_coulomb_setupBoundaryConditions: Could not setup numerical thresholds
-6835- type_latticepoint_update: Could not generate lattice points
-6834- xtb_calculator_singlepoint: Electronic structure method terminated
-6833- scf: Setup of Coulomb evaluator failed
-6832- type_coulomb_setupBoundaryConditions: Could not setup numerical thresholds
-6831- type_latticepoint_update: Could not generate lattice points
-6830- xtb_calculator_singlepoint: Electronic structure method terminated
-6829- scf: Setup of Coulomb evaluator failed
-6828- type_coulomb_setupBoundaryConditions: Could not setup numerical thresholds
-6827- type_latticepoint_update: Could not generate lattice points
-6826- xtb_calculator_singlepoint: Electronic structure method terminated
-6825- scf: Setup of Coulomb evaluator failed
-6824- type_coulomb_setupBoundaryConditions: Could not setup numerical thresholds
-6823- type_latticepoint_update: Could not generate lattice points
-6822- xtb_calculator_singlepoint: Electronic structure method terminated
-6821- scf: Setup of Coulomb evaluator failed
-6820- type_coulomb_setupBoundaryConditions: Could not setup numerical thresholds
-6819- type_latticepoint_update: Could not generate lattice points
-6818- xtb_calculator_singlepoint: Electronic structure method terminated
-6817- scf: Setup of Coulomb evaluator failed
-6816- type_coulomb_setupBoundaryConditions: Could not setup numerical thresholds
-6815- type_latticepoint_update: Could not generate lattice points
-6814- xtb_calculator_singlepoint: Electronic structure method terminated
-6813- scf: Setup of Coulomb evaluator failed
-6812- type_coulomb_setupBoundaryConditions: Could not setup numerical thresholds
-6811- type_latticepoint_update: Could not generate lattice points
-6810- xtb_calculator_singlepoint: Electronic structure method terminated
-6809- scf: Setup of Coulomb evaluator failed
-6808- type_coulomb_setupBoundaryConditions: Could not setup numerical thresholds
-6807- type_latticepoint_update: Could not generate lattice points
-6806- xtb_calculator_singlepoint: Electronic structure method terminated
-6805- scf: Setup of Coulomb evaluator failed
-6804- type_coulomb_setupBoundaryConditions: Could not setup numerical thresholds
-6803- type_latticepoint_update: Could not generate lattice points
-6802- xtb_calculator_singlepoint: Electronic structure method terminated
-6801- scf: Setup of Coulomb evaluator failed
-6800- type_coulomb_setupBoundaryConditions: Could not setup numerical thresholds
-6799- type_latticepoint_update: Could not generate lattice points
-6798- xtb_calculator_singlepoint: Electronic structure method terminated
-6797- scf: Setup of Coulomb evaluator failed
-6796- type_coulomb_setupBoundaryConditions: Could not setup numerical thresholds
-6795- type_latticepoint_update: Could not generate lattice points
-6794- xtb_calculator_singlepoint: Electronic structure method terminated
-6793- scf: Setup of Coulomb evaluator failed
-6792- type_coulomb_setupBoundaryConditions: Could not setup numerical thresholds
-6791- type_latticepoint_update: Could not generate lattice points
-6790- xtb_calculator_singlepoint: Electronic structure method terminated
-6789- scf: Setup of Coulomb evaluator failed
-6788- type_coulomb_setupBoundaryConditions: Could not setup numerical thresholds
-6787- type_latticepoint_update: Could not generate lattice points
-6786- xtb_calculator_singlepoint: Electronic structure method terminated
-6785- scf: Setup of Coulomb evaluator failed
-6784- type_coulomb_setupBoundaryConditions: Could not setup numerical thresholds
-6783- type_latticepoint_update: Could not generate lattice points
-6782- xtb_calculator_singlepoint: Electronic structure method terminated
-6781- scf: Setup of Coulomb evaluator failed
-6780- type_coulomb_setupBoundaryConditions: Could not setup numerical thresholds
-6779- type_latticepoint_update: Could not generate lattice points
-6778- xtb_calculator_singlepoint: Electronic structure method terminated
-6777- scf: Setup of Coulomb evaluator failed
-6776- type_coulomb_setupBoundaryConditions: Could not setup numerical thresholds
-6775- type_latticepoint_update: Could not generate lattice points
-6774- xtb_calculator_singlepoint: Electronic structure method terminated
-6773- scf: Setup of Coulomb evaluator failed
-6772- type_coulomb_setupBoundaryConditions: Could not setup numerical thresholds
-6771- type_latticepoint_update: Could not generate lattice points
-6770- xtb_calculator_singlepoint: Electronic structure method terminated
-6769- scf: Setup of Coulomb evaluator failed
-6768- type_coulomb_setupBoundaryConditions: Could not setup numerical thresholds
-6767- type_latticepoint_update: Could not generate lattice points
-6766- xtb_calculator_singlepoint: Electronic structure method terminated
-6765- scf: Setup of Coulomb evaluator failed
-6764- type_coulomb_setupBoundaryConditions: Could not setup numerical thresholds
-6763- type_latticepoint_update: Could not generate lattice points
-6762- xtb_calculator_singlepoint: Electronic structure method terminated
-6761- scf: Setup of Coulomb evaluator failed
-6760- type_coulomb_setupBoundaryConditions: Could not setup numerical thresholds
-6759- type_latticepoint_update: Could not generate lattice points
-6758- xtb_calculator_singlepoint: Electronic structure method terminated
-6757- scf: Setup of Coulomb evaluator failed
-6756- type_coulomb_setupBoundaryConditions: Could not setup numerical thresholds
-6755- type_latticepoint_update: Could not generate lattice points
-6754- xtb_calculator_singlepoint: Electronic structure method terminated
-6753- scf: Setup of Coulomb evaluator failed
-6752- type_coulomb_setupBoundaryConditions: Could not setup numerical thresholds
-6751- type_latticepoint_update: Could not generate lattice points
-6750- xtb_calculator_singlepoint: Electronic structure method terminated
-6749- scf: Setup of Coulomb evaluator failed
-6748- type_coulomb_setupBoundaryConditions: Could not setup numerical thresholds
-6747- type_latticepoint_update: Could not generate lattice points
-6746- xtb_calculator_singlepoint: Electronic structure method terminated
-6745- scf: Setup of Coulomb evaluator failed
-6744- type_coulomb_setupBoundaryConditions: Could not setup numerical thresholds
-6743- type_latticepoint_update: Could not generate lattice points
-6742- xtb_calculator_singlepoint: Electronic structure method terminated
-6741- scf: Setup of Coulomb evaluator failed
-6740- type_coulomb_setupBoundaryConditions: Could not setup numerical thresholds
-6739- type_latticepoint_update: Could not generate lattice points
-6738- xtb_calculator_singlepoint: Electronic structure method terminated
-6737- scf: Setup of Coulomb evaluator failed
-6736- type_coulomb_setupBoundaryConditions: Could not setup numerical thresholds
-6735- type_latticepoint_update: Could not generate lattice points
-6734- xtb_calculator_singlepoint: Electronic structure method terminated
-6733- scf: Setup of Coulomb evaluator failed
-6732- type_coulomb_setupBoundaryConditions: Could not setup numerical thresholds
-6731- type_latticepoint_update: Could not generate lattice points
-6730- xtb_calculator_singlepoint: Electronic structure method terminated
-6729- scf: Setup of Coulomb evaluator failed
-6728- type_coulomb_setupBoundaryConditions: Could not setup numerical thresholds
-6727- type_latticepoint_update: Could not generate lattice points
-6726- xtb_calculator_singlepoint: Electronic structure method terminated
-6725- scf: Setup of Coulomb evaluator failed
-6724- type_coulomb_setupBoundaryConditions: Could not setup numerical thresholds
-6723- type_latticepoint_update: Could not generate lattice points
-6722- xtb_calculator_singlepoint: Electronic structure method terminated
-6721- scf: Setup of Coulomb evaluator failed
-6720- type_coulomb_setupBoundaryConditions: Could not setup numerical thresholds
-6719- type_latticepoint_update: Could not generate lattice points
-6718- xtb_calculator_singlepoint: Electronic structure method terminated
-6717- scf: Setup of Coulomb evaluator failed
-6716- type_coulomb_setupBoundaryConditions: Could not setup numerical thresholds
-6715- type_latticepoint_update: Could not generate lattice points
-6714- xtb_calculator_singlepoint: Electronic structure method terminated
-6713- scf: Setup of Coulomb evaluator failed
-6712- type_coulomb_setupBoundaryConditions: Could not setup numerical thresholds
-6711- type_latticepoint_update: Could not generate lattice points
-6710- xtb_calculator_singlepoint: Electronic structure method terminated
-6709- scf: Setup of Coulomb evaluator failed
-6708- type_coulomb_setupBoundaryConditions: Could not setup numerical thresholds
-6707- type_latticepoint_update: Could not generate lattice points
-6706- xtb_calculator_singlepoint: Electronic structure method terminated
-6705- scf: Setup of Coulomb evaluator failed
-6704- type_coulomb_setupBoundaryConditions: Could not setup numerical thresholds
-6703- type_latticepoint_update: Could not generate lattice points
-6702- xtb_calculator_singlepoint: Electronic structure method terminated
-6701- scf: Setup of Coulomb evaluator failed
-6700- type_coulomb_setupBoundaryConditions: Could not setup numerical thresholds
-6699- type_latticepoint_update: Could not generate lattice points
-6698- xtb_calculator_singlepoint: Electronic structure method terminated
-6697- scf: Setup of Coulomb evaluator failed
-6696- type_coulomb_setupBoundaryConditions: Could not setup numerical thresholds
-6695- type_latticepoint_update: Could not generate lattice points
-6694- xtb_calculator_singlepoint: Electronic structure method terminated
-6693- scf: Setup of Coulomb evaluator failed
-6692- type_coulomb_setupBoundaryConditions: Could not setup numerical thresholds
-6691- type_latticepoint_update: Could not generate lattice points
-6690- xtb_calculator_singlepoint: Electronic structure method terminated
-6689- scf: Setup of Coulomb evaluator failed
-6688- type_coulomb_setupBoundaryConditions: Could not setup numerical thresholds
-6687- type_latticepoint_update: Could not generate lattice points
-6686- xtb_calculator_singlepoint: Electronic structure method terminated
-6685- scf: Setup of Coulomb evaluator failed
-6684- type_coulomb_setupBoundaryConditions: Could not setup numerical thresholds
-6683- type_latticepoint_update: Could not generate lattice points
-6682- xtb_calculator_singlepoint: Electronic structure method terminated
-6681- scf: Setup of Coulomb evaluator failed
-6680- type_coulomb_setupBoundaryConditions: Could not setup numerical thresholds
-6679- type_latticepoint_update: Could not generate lattice points
-6678- xtb_calculator_singlepoint: Electronic structure method terminated
-6677- scf: Setup of Coulomb evaluator failed
-6676- type_coulomb_setupBoundaryConditions: Could not setup numerical thresholds
-6675- type_latticepoint_update: Could not generate lattice points
-6674- xtb_calculator_singlepoint: Electronic structure method terminated
-6673- scf: Setup of Coulomb evaluator failed
-6672- type_coulomb_setupBoundaryConditions: Could not setup numerical thresholds
-6671- type_latticepoint_update: Could not generate lattice points
-6670- xtb_calculator_singlepoint: Electronic structure method terminated
-6669- scf: Setup of Coulomb evaluator failed
-6668- type_coulomb_setupBoundaryConditions: Could not setup numerical thresholds
-6667- type_latticepoint_update: Could not generate lattice points
-6666- xtb_calculator_singlepoint: Electronic structure method terminated
-6665- scf: Setup of Coulomb evaluator failed
-6664- type_coulomb_setupBoundaryConditions: Could not setup numerical thresholds
-6663- type_latticepoint_update: Could not generate lattice points
-6662- xtb_calculator_singlepoint: Electronic structure method terminated
-6661- scf: Setup of Coulomb evaluator failed
-6660- type_coulomb_setupBoundaryConditions: Could not setup numerical thresholds
-6659- type_latticepoint_update: Could not generate lattice points
-6658- xtb_calculator_singlepoint: Electronic structure method terminated
-6657- scf: Setup of Coulomb evaluator failed
-6656- type_coulomb_setupBoundaryConditions: Could not setup numerical thresholds
-6655- type_latticepoint_update: Could not generate lattice points
-6654- xtb_calculator_singlepoint: Electronic structure method terminated
-6653- scf: Setup of Coulomb evaluator failed
-6652- type_coulomb_setupBoundaryConditions: Could not setup numerical thresholds
-6651- type_latticepoint_update: Could not generate lattice points
-6650- xtb_calculator_singlepoint: Electronic structure method terminated
-6649- scf: Setup of Coulomb evaluator failed
-6648- type_coulomb_setupBoundaryConditions: Could not setup numerical thresholds
-6647- type_latticepoint_update: Could not generate lattice points
-6646- xtb_calculator_singlepoint: Electronic structure method terminated
-6645- scf: Setup of Coulomb evaluator failed
-6644- type_coulomb_setupBoundaryConditions: Could not setup numerical thresholds
-6643- type_latticepoint_update: Could not generate lattice points
-6642- xtb_calculator_singlepoint: Electronic structure method terminated
-6641- scf: Setup of Coulomb evaluator failed
-6640- type_coulomb_setupBoundaryConditions: Could not setup numerical thresholds
-6639- type_latticepoint_update: Could not generate lattice points
-6638- xtb_calculator_singlepoint: Electronic structure method terminated
-6637- scf: Setup of Coulomb evaluator failed
-6636- type_coulomb_setupBoundaryConditions: Could not setup numerical thresholds
-6635- type_latticepoint_update: Could not generate lattice points
-6634- xtb_calculator_singlepoint: Electronic structure method terminated
-6633- scf: Setup of Coulomb evaluator failed
-6632- type_coulomb_setupBoundaryConditions: Could not setup numerical thresholds
-6631- type_latticepoint_update: Could not generate lattice points
-6630- xtb_calculator_singlepoint: Electronic structure method terminated
-6629- scf: Setup of Coulomb evaluator failed
-6628- type_coulomb_setupBoundaryConditions: Could not setup numerical thresholds
-6627- type_latticepoint_update: Could not generate lattice points
-6626- xtb_calculator_singlepoint: Electronic structure method terminated
-6625- scf: Setup of Coulomb evaluator failed
-6624- type_coulomb_setupBoundaryConditions: Could not setup numerical thresholds
-6623- type_latticepoint_update: Could not generate lattice points
-6622- xtb_calculator_singlepoint: Electronic structure method terminated
-6621- scf: Setup of Coulomb evaluator failed
-6620- type_coulomb_setupBoundaryConditions: Could not setup numerical thresholds
-6619- type_latticepoint_update: Could not generate lattice points
-6618- xtb_calculator_singlepoint: Electronic structure method terminated
-6617- scf: Setup of Coulomb evaluator failed
-6616- type_coulomb_setupBoundaryConditions: Could not setup numerical thresholds
-6615- type_latticepoint_update: Could not generate lattice points
-6614- xtb_calculator_singlepoint: Electronic structure method terminated
-6613- scf: Setup of Coulomb evaluator failed
-6612- type_coulomb_setupBoundaryConditions: Could not setup numerical thresholds
-6611- type_latticepoint_update: Could not generate lattice points
-6610- xtb_calculator_singlepoint: Electronic structure method terminated
-6609- scf: Setup of Coulomb evaluator failed
-6608- type_coulomb_setupBoundaryConditions: Could not setup numerical thresholds
-6607- type_latticepoint_update: Could not generate lattice points
-6606- xtb_calculator_singlepoint: Electronic structure method terminated
-6605- scf: Setup of Coulomb evaluator failed
-6604- type_coulomb_setupBoundaryConditions: Could not setup numerical thresholds
-6603- type_latticepoint_update: Could not generate lattice points
-6602- xtb_calculator_singlepoint: Electronic structure method terminated
-6601- scf: Setup of Coulomb evaluator failed
-6600- type_coulomb_setupBoundaryConditions: Could not setup numerical thresholds
-6599- type_latticepoint_update: Could not generate lattice points
-6598- xtb_calculator_singlepoint: Electronic structure method terminated
-6597- scf: Setup of Coulomb evaluator failed
-6596- type_coulomb_setupBoundaryConditions: Could not setup numerical thresholds
-6595- type_latticepoint_update: Could not generate lattice points
-6594- xtb_calculator_singlepoint: Electronic structure method terminated
-6593- scf: Setup of Coulomb evaluator failed
-6592- type_coulomb_setupBoundaryConditions: Could not setup numerical thresholds
-6591- type_latticepoint_update: Could not generate lattice points
-6590- xtb_calculator_singlepoint: Electronic structure method terminated
-6589- scf: Setup of Coulomb evaluator failed
-6588- type_coulomb_setupBoundaryConditions: Could not setup numerical thresholds
-6587- type_latticepoint_update: Could not generate lattice points
-6586- xtb_calculator_singlepoint: Electronic structure method terminated
-6585- scf: Setup of Coulomb evaluator failed
-6584- type_coulomb_setupBoundaryConditions: Could not setup numerical thresholds
-6583- type_latticepoint_update: Could not generate lattice points
-6582- xtb_calculator_singlepoint: Electronic structure method terminated
-6581- scf: Setup of Coulomb evaluator failed
-6580- type_coulomb_setupBoundaryConditions: Could not setup numerical thresholds
-6579- type_latticepoint_update: Could not generate lattice points
-6578- xtb_calculator_singlepoint: Electronic structure method terminated
-6577- scf: Setup of Coulomb evaluator failed
-6576- type_coulomb_setupBoundaryConditions: Could not setup numerical thresholds
-6575- type_latticepoint_update: Could not generate lattice points
-6574- xtb_calculator_singlepoint: Electronic structure method terminated
-6573- scf: Setup of Coulomb evaluator failed
-6572- type_coulomb_setupBoundaryConditions: Could not setup numerical thresholds
-6571- type_latticepoint_update: Could not generate lattice points
-6570- xtb_calculator_singlepoint: Electronic structure method terminated
-6569- scf: Setup of Coulomb evaluator failed
-6568- type_coulomb_setupBoundaryConditions: Could not setup numerical thresholds
-6567- type_latticepoint_update: Could not generate lattice points
-6566- xtb_calculator_singlepoint: Electronic structure method terminated
-6565- scf: Setup of Coulomb evaluator failed
-6564- type_coulomb_setupBoundaryConditions: Could not setup numerical thresholds
-6563- type_latticepoint_update: Could not generate lattice points
-6562- xtb_calculator_singlepoint: Electronic structure method terminated
-6561- scf: Setup of Coulomb evaluator failed
-6560- type_coulomb_setupBoundaryConditions: Could not setup numerical thresholds
-6559- type_latticepoint_update: Could not generate lattice points
-6558- xtb_calculator_singlepoint: Electronic structure method terminated
-6557- scf: Setup of Coulomb evaluator failed
-6556- type_coulomb_setupBoundaryConditions: Could not setup numerical thresholds
-6555- type_latticepoint_update: Could not generate lattice points
-6554- xtb_calculator_singlepoint: Electronic structure method terminated
-6553- scf: Setup of Coulomb evaluator failed
-6552- type_coulomb_setupBoundaryConditions: Could not setup numerical thresholds
-6551- type_latticepoint_update: Could not generate lattice points
-6550- xtb_calculator_singlepoint: Electronic structure method terminated
-6549- scf: Setup of Coulomb evaluator failed
-6548- type_coulomb_setupBoundaryConditions: Could not setup numerical thresholds
-6547- type_latticepoint_update: Could not generate lattice points
-6546- xtb_calculator_singlepoint: Electronic structure method terminated
-6545- scf: Setup of Coulomb evaluator failed
-6544- type_coulomb_setupBoundaryConditions: Could not setup numerical thresholds
-6543- type_latticepoint_update: Could not generate lattice points
-6542- xtb_calculator_singlepoint: Electronic structure method terminated
-6541- scf: Setup of Coulomb evaluator failed
-6540- type_coulomb_setupBoundaryConditions: Could not setup numerical thresholds
-6539- type_latticepoint_update: Could not generate lattice points
-6538- xtb_calculator_singlepoint: Electronic structure method terminated
-6537- scf: Setup of Coulomb evaluator failed
-6536- type_coulomb_setupBoundaryConditions: Could not setup numerical thresholds
-6535- type_latticepoint_update: Could not generate lattice points
-6534- xtb_calculator_singlepoint: Electronic structure method terminated
-6533- scf: Setup of Coulomb evaluator failed
-6532- type_coulomb_setupBoundaryConditions: Could not setup numerical thresholds
-6531- type_latticepoint_update: Could not generate lattice points
-6530- xtb_calculator_singlepoint: Electronic structure method terminated
-6529- scf: Setup of Coulomb evaluator failed
-6528- type_coulomb_setupBoundaryConditions: Could not setup numerical thresholds
-6527- type_latticepoint_update: Could not generate lattice points
-6526- xtb_calculator_singlepoint: Electronic structure method terminated
-6525- scf: Setup of Coulomb evaluator failed
-6524- type_coulomb_setupBoundaryConditions: Could not setup numerical thresholds
-6523- type_latticepoint_update: Could not generate lattice points
-6522- xtb_calculator_singlepoint: Electronic structure method terminated
-6521- scf: Setup of Coulomb evaluator failed
-6520- type_coulomb_setupBoundaryConditions: Could not setup numerical thresholds
-6519- type_latticepoint_update: Could not generate lattice points
-6518- xtb_calculator_singlepoint: Electronic structure method terminated
-6517- scf: Setup of Coulomb evaluator failed
-6516- type_coulomb_setupBoundaryConditions: Could not setup numerical thresholds
-6515- type_latticepoint_update: Could not generate lattice points
-6514- xtb_calculator_singlepoint: Electronic structure method terminated
-6513- scf: Setup of Coulomb evaluator failed
-6512- type_coulomb_setupBoundaryConditions: Could not setup numerical thresholds
-6511- type_latticepoint_update: Could not generate lattice points
-6510- xtb_calculator_singlepoint: Electronic structure method terminated
-6509- scf: Setup of Coulomb evaluator failed
-6508- type_coulomb_setupBoundaryConditions: Could not setup numerical thresholds
-6507- type_latticepoint_update: Could not generate lattice points
-6506- xtb_calculator_singlepoint: Electronic structure method terminated
-6505- scf: Setup of Coulomb evaluator failed
-6504- type_coulomb_setupBoundaryConditions: Could not setup numerical thresholds
-6503- type_latticepoint_update: Could not generate lattice points
-6502- xtb_calculator_singlepoint: Electronic structure method terminated
-6501- scf: Setup of Coulomb evaluator failed
-6500- type_coulomb_setupBoundaryConditions: Could not setup numerical thresholds
-6499- type_latticepoint_update: Could not generate lattice points
-6498- xtb_calculator_singlepoint: Electronic structure method terminated
-6497- scf: Setup of Coulomb evaluator failed
-6496- type_coulomb_setupBoundaryConditions: Could not setup numerical thresholds
-6495- type_latticepoint_update: Could not generate lattice points
-6494- xtb_calculator_singlepoint: Electronic structure method terminated
-6493- scf: Setup of Coulomb evaluator failed
-6492- type_coulomb_setupBoundaryConditions: Could not setup numerical thresholds
-6491- type_latticepoint_update: Could not generate lattice points
-6490- xtb_calculator_singlepoint: Electronic structure method terminated
-6489- scf: Setup of Coulomb evaluator failed
-6488- type_coulomb_setupBoundaryConditions: Could not setup numerical thresholds
-6487- type_latticepoint_update: Could not generate lattice points
-6486- xtb_calculator_singlepoint: Electronic structure method terminated
-6485- scf: Setup of Coulomb evaluator failed
-6484- type_coulomb_setupBoundaryConditions: Could not setup numerical thresholds
-6483- type_latticepoint_update: Could not generate lattice points
-6482- xtb_calculator_singlepoint: Electronic structure method terminated
-6481- scf: Setup of Coulomb evaluator failed
-6480- type_coulomb_setupBoundaryConditions: Could not setup numerical thresholds
-6479- type_latticepoint_update: Could not generate lattice points
-6478- xtb_calculator_singlepoint: Electronic structure method terminated
-6477- scf: Setup of Coulomb evaluator failed
-6476- type_coulomb_setupBoundaryConditions: Could not setup numerical thresholds
-6475- type_latticepoint_update: Could not generate lattice points
-6474- xtb_calculator_singlepoint: Electronic structure method terminated
-6473- scf: Setup of Coulomb evaluator failed
-6472- type_coulomb_setupBoundaryConditions: Could not setup numerical thresholds
-6471- type_latticepoint_update: Could not generate lattice points
-6470- xtb_calculator_singlepoint: Electronic structure method terminated
-6469- scf: Setup of Coulomb evaluator failed
-6468- type_coulomb_setupBoundaryConditions: Could not setup numerical thresholds
-6467- type_latticepoint_update: Could not generate lattice points
-6466- xtb_calculator_singlepoint: Electronic structure method terminated
-6465- scf: Setup of Coulomb evaluator failed
-6464- type_coulomb_setupBoundaryConditions: Could not setup numerical thresholds
-6463- type_latticepoint_update: Could not generate lattice points
-6462- xtb_calculator_singlepoint: Electronic structure method terminated
-6461- scf: Setup of Coulomb evaluator failed
-6460- type_coulomb_setupBoundaryConditions: Could not setup numerical thresholds
-6459- type_latticepoint_update: Could not generate lattice points
-6458- xtb_calculator_singlepoint: Electronic structure method terminated
-6457- scf: Setup of Coulomb evaluator failed
-6456- type_coulomb_setupBoundaryConditions: Could not setup numerical thresholds
-6455- type_latticepoint_update: Could not generate lattice points
-6454- xtb_calculator_singlepoint: Electronic structure method terminated
-6453- scf: Setup of Coulomb evaluator failed
-6452- type_coulomb_setupBoundaryConditions: Could not setup numerical thresholds
-6451- type_latticepoint_update: Could not generate lattice points
-6450- xtb_calculator_singlepoint: Electronic structure method terminated
-6449- scf: Setup of Coulomb evaluator failed
-6448- type_coulomb_setupBoundaryConditions: Could not setup numerical thresholds
-6447- type_latticepoint_update: Could not generate lattice points
-6446- xtb_calculator_singlepoint: Electronic structure method terminated
-6445- scf: Setup of Coulomb evaluator failed
-6444- type_coulomb_setupBoundaryConditions: Could not setup numerical thresholds
-6443- type_latticepoint_update: Could not generate lattice points
-6442- xtb_calculator_singlepoint: Electronic structure method terminated
-6441- scf: Setup of Coulomb evaluator failed
-6440- type_coulomb_setupBoundaryConditions: Could not setup numerical thresholds
-6439- type_latticepoint_update: Could not generate lattice points
-6438- xtb_calculator_singlepoint: Electronic structure method terminated
-6437- scf: Setup of Coulomb evaluator failed
-6436- type_coulomb_setupBoundaryConditions: Could not setup numerical thresholds
-6435- type_latticepoint_update: Could not generate lattice points
-6434- xtb_calculator_singlepoint: Electronic structure method terminated
-6433- scf: Setup of Coulomb evaluator failed
-6432- type_coulomb_setupBoundaryConditions: Could not setup numerical thresholds
-6431- type_latticepoint_update: Could not generate lattice points
-6430- xtb_calculator_singlepoint: Electronic structure method terminated
-6429- scf: Setup of Coulomb evaluator failed
-6428- type_coulomb_setupBoundaryConditions: Could not setup numerical thresholds
-6427- type_latticepoint_update: Could not generate lattice points
-6426- xtb_calculator_singlepoint: Electronic structure method terminated
-6425- scf: Setup of Coulomb evaluator failed
-6424- type_coulomb_setupBoundaryConditions: Could not setup numerical thresholds
-6423- type_latticepoint_update: Could not generate lattice points
-6422- xtb_calculator_singlepoint: Electronic structure method terminated
-6421- scf: Setup of Coulomb evaluator failed
-6420- type_coulomb_setupBoundaryConditions: Could not setup numerical thresholds
-6419- type_latticepoint_update: Could not generate lattice points
-6418- xtb_calculator_singlepoint: Electronic structure method terminated
-6417- scf: Setup of Coulomb evaluator failed
-6416- type_coulomb_setupBoundaryConditions: Could not setup numerical thresholds
-6415- type_latticepoint_update: Could not generate lattice points
-6414- xtb_calculator_singlepoint: Electronic structure method terminated
-6413- scf: Setup of Coulomb evaluator failed
-6412- type_coulomb_setupBoundaryConditions: Could not setup numerical thresholds
-6411- type_latticepoint_update: Could not generate lattice points
-6410- xtb_calculator_singlepoint: Electronic structure method terminated
-6409- scf: Setup of Coulomb evaluator failed
-6408- type_coulomb_setupBoundaryConditions: Could not setup numerical thresholds
-6407- type_latticepoint_update: Could not generate lattice points
-6406- xtb_calculator_singlepoint: Electronic structure method terminated
-6405- scf: Setup of Coulomb evaluator failed
-6404- type_coulomb_setupBoundaryConditions: Could not setup numerical thresholds
-6403- type_latticepoint_update: Could not generate lattice points
-6402- xtb_calculator_singlepoint: Electronic structure method terminated
-6401- scf: Setup of Coulomb evaluator failed
-6400- type_coulomb_setupBoundaryConditions: Could not setup numerical thresholds
-6399- type_latticepoint_update: Could not generate lattice points
-6398- xtb_calculator_singlepoint: Electronic structure method terminated
-6397- scf: Setup of Coulomb evaluator failed
-6396- type_coulomb_setupBoundaryConditions: Could not setup numerical thresholds
-6395- type_latticepoint_update: Could not generate lattice points
-6394- xtb_calculator_singlepoint: Electronic structure method terminated
-6393- scf: Setup of Coulomb evaluator failed
-6392- type_coulomb_setupBoundaryConditions: Could not setup numerical thresholds
-6391- type_latticepoint_update: Could not generate lattice points
-6390- xtb_calculator_singlepoint: Electronic structure method terminated
-6389- scf: Setup of Coulomb evaluator failed
-6388- type_coulomb_setupBoundaryConditions: Could not setup numerical thresholds
-6387- type_latticepoint_update: Could not generate lattice points
-6386- xtb_calculator_singlepoint: Electronic structure method terminated
-6385- scf: Setup of Coulomb evaluator failed
-6384- type_coulomb_setupBoundaryConditions: Could not setup numerical thresholds
-6383- type_latticepoint_update: Could not generate lattice points
-6382- xtb_calculator_singlepoint: Electronic structure method terminated
-6381- scf: Setup of Coulomb evaluator failed
-6380- type_coulomb_setupBoundaryConditions: Could not setup numerical thresholds
-6379- type_latticepoint_update: Could not generate lattice points
-6378- xtb_calculator_singlepoint: Electronic structure method terminated
-6377- scf: Setup of Coulomb evaluator failed
-6376- type_coulomb_setupBoundaryConditions: Could not setup numerical thresholds
-6375- type_latticepoint_update: Could not generate lattice points
-6374- xtb_calculator_singlepoint: Electronic structure method terminated
-6373- scf: Setup of Coulomb evaluator failed
-6372- type_coulomb_setupBoundaryConditions: Could not setup numerical thresholds
-6371- type_latticepoint_update: Could not generate lattice points
-6370- xtb_calculator_singlepoint: Electronic structure method terminated
-6369- scf: Setup of Coulomb evaluator failed
-6368- type_coulomb_setupBoundaryConditions: Could not setup numerical thresholds
-6367- type_latticepoint_update: Could not generate lattice points
-6366- xtb_calculator_singlepoint: Electronic structure method terminated
-6365- scf: Setup of Coulomb evaluator failed
-6364- type_coulomb_setupBoundaryConditions: Could not setup numerical thresholds
-6363- type_latticepoint_update: Could not generate lattice points
-6362- xtb_calculator_singlepoint: Electronic structure method terminated
-6361- scf: Setup of Coulomb evaluator failed
-6360- type_coulomb_setupBoundaryConditions: Could not setup numerical thresholds
-6359- type_latticepoint_update: Could not generate lattice points
-6358- xtb_calculator_singlepoint: Electronic structure method terminated
-6357- scf: Setup of Coulomb evaluator failed
-6356- type_coulomb_setupBoundaryConditions: Could not setup numerical thresholds
-6355- type_latticepoint_update: Could not generate lattice points
-6354- xtb_calculator_singlepoint: Electronic structure method terminated
-6353- scf: Setup of Coulomb evaluator failed
-6352- type_coulomb_setupBoundaryConditions: Could not setup numerical thresholds
-6351- type_latticepoint_update: Could not generate lattice points
-6350- xtb_calculator_singlepoint: Electronic structure method terminated
-6349- scf: Setup of Coulomb evaluator failed
-6348- type_coulomb_setupBoundaryConditions: Could not setup numerical thresholds
-6347- type_latticepoint_update: Could not generate lattice points
-6346- xtb_calculator_singlepoint: Electronic structure method terminated
-6345- scf: Setup of Coulomb evaluator failed
-6344- type_coulomb_setupBoundaryConditions: Could not setup numerical thresholds
-6343- type_latticepoint_update: Could not generate lattice points
-6342- xtb_calculator_singlepoint: Electronic structure method terminated
-6341- scf: Setup of Coulomb evaluator failed
-6340- type_coulomb_setupBoundaryConditions: Could not setup numerical thresholds
-6339- type_latticepoint_update: Could not generate lattice points
-6338- xtb_calculator_singlepoint: Electronic structure method terminated
-6337- scf: Setup of Coulomb evaluator failed
-6336- type_coulomb_setupBoundaryConditions: Could not setup numerical thresholds
-6335- type_latticepoint_update: Could not generate lattice points
-6334- xtb_calculator_singlepoint: Electronic structure method terminated
-6333- scf: Setup of Coulomb evaluator failed
-6332- type_coulomb_setupBoundaryConditions: Could not setup numerical thresholds
-6331- type_latticepoint_update: Could not generate lattice points
-6330- xtb_calculator_singlepoint: Electronic structure method terminated
-6329- scf: Setup of Coulomb evaluator failed
-6328- type_coulomb_setupBoundaryConditions: Could not setup numerical thresholds
-6327- type_latticepoint_update: Could not generate lattice points
-6326- xtb_calculator_singlepoint: Electronic structure method terminated
-6325- scf: Setup of Coulomb evaluator failed
-6324- type_coulomb_setupBoundaryConditions: Could not setup numerical thresholds
-6323- type_latticepoint_update: Could not generate lattice points
-6322- xtb_calculator_singlepoint: Electronic structure method terminated
-6321- scf: Setup of Coulomb evaluator failed
-6320- type_coulomb_setupBoundaryConditions: Could not setup numerical thresholds
-6319- type_latticepoint_update: Could not generate lattice points
-6318- xtb_calculator_singlepoint: Electronic structure method terminated
-6317- scf: Setup of Coulomb evaluator failed
-6316- type_coulomb_setupBoundaryConditions: Could not setup numerical thresholds
-6315- type_latticepoint_update: Could not generate lattice points
-6314- xtb_calculator_singlepoint: Electronic structure method terminated
-6313- scf: Setup of Coulomb evaluator failed
-6312- type_coulomb_setupBoundaryConditions: Could not setup numerical thresholds
-6311- type_latticepoint_update: Could not generate lattice points
-6310- xtb_calculator_singlepoint: Electronic structure method terminated
-6309- scf: Setup of Coulomb evaluator failed
-6308- type_coulomb_setupBoundaryConditions: Could not setup numerical thresholds
-6307- type_latticepoint_update: Could not generate lattice points
-6306- xtb_calculator_singlepoint: Electronic structure method terminated
-6305- scf: Setup of Coulomb evaluator failed
-6304- type_coulomb_setupBoundaryConditions: Could not setup numerical thresholds
-6303- type_latticepoint_update: Could not generate lattice points
-6302- xtb_calculator_singlepoint: Electronic structure method terminated
-6301- scf: Setup of Coulomb evaluator failed
-6300- type_coulomb_setupBoundaryConditions: Could not setup numerical thresholds
-6299- type_latticepoint_update: Could not generate lattice points
-6298- xtb_calculator_singlepoint: Electronic structure method terminated
-6297- scf: Setup of Coulomb evaluator failed
-6296- type_coulomb_setupBoundaryConditions: Could not setup numerical thresholds
-6295- type_latticepoint_update: Could not generate lattice points
-6294- xtb_calculator_singlepoint: Electronic structure method terminated
-6293- scf: Setup of Coulomb evaluator failed
-6292- type_coulomb_setupBoundaryConditions: Could not setup numerical thresholds
-6291- type_latticepoint_update: Could not generate lattice points
-6290- xtb_calculator_singlepoint: Electronic structure method terminated
-6289- scf: Setup of Coulomb evaluator failed
-6288- type_coulomb_setupBoundaryConditions: Could not setup numerical thresholds
-6287- type_latticepoint_update: Could not generate lattice points
-6286- xtb_calculator_singlepoint: Electronic structure method terminated
-6285- scf: Setup of Coulomb evaluator failed
-6284- type_coulomb_setupBoundaryConditions: Could not setup numerical thresholds
-6283- type_latticepoint_update: Could not generate lattice points
-6282- xtb_calculator_singlepoint: Electronic structure method terminated
-6281- scf: Setup of Coulomb evaluator failed
-6280- type_coulomb_setupBoundaryConditions: Could not setup numerical thresholds
-6279- type_latticepoint_update: Could not generate lattice points
-6278- xtb_calculator_singlepoint: Electronic structure method terminated
-6277- scf: Setup of Coulomb evaluator failed
-6276- type_coulomb_setupBoundaryConditions: Could not setup numerical thresholds
-6275- type_latticepoint_update: Could not generate lattice points
-6274- xtb_calculator_singlepoint: Electronic structure method terminated
-6273- scf: Setup of Coulomb evaluator failed
-6272- type_coulomb_setupBoundaryConditions: Could not setup numerical thresholds
-6271- type_latticepoint_update: Could not generate lattice points
-6270- xtb_calculator_singlepoint: Electronic structure method terminated
-6269- scf: Setup of Coulomb evaluator failed
-6268- type_coulomb_setupBoundaryConditions: Could not setup numerical thresholds
-6267- type_latticepoint_update: Could not generate lattice points
-6266- xtb_calculator_singlepoint: Electronic structure method terminated
-6265- scf: Setup of Coulomb evaluator failed
-6264- type_coulomb_setupBoundaryConditions: Could not setup numerical thresholds
-6263- type_latticepoint_update: Could not generate lattice points
-6262- xtb_calculator_singlepoint: Electronic structure method terminated
-6261- scf: Setup of Coulomb evaluator failed
-6260- type_coulomb_setupBoundaryConditions: Could not setup numerical thresholds
-6259- type_latticepoint_update: Could not generate lattice points
-6258- xtb_calculator_singlepoint: Electronic structure method terminated
-6257- scf: Setup of Coulomb evaluator failed
-6256- type_coulomb_setupBoundaryConditions: Could not setup numerical thresholds
-6255- type_latticepoint_update: Could not generate lattice points
-6254- xtb_calculator_singlepoint: Electronic structure method terminated
-6253- scf: Setup of Coulomb evaluator failed
-6252- type_coulomb_setupBoundaryConditions: Could not setup numerical thresholds
-6251- type_latticepoint_update: Could not generate lattice points
-6250- xtb_calculator_singlepoint: Electronic structure method terminated
-6249- scf: Setup of Coulomb evaluator failed
-6248- type_coulomb_setupBoundaryConditions: Could not setup numerical thresholds
-6247- type_latticepoint_update: Could not generate lattice points
-6246- xtb_calculator_singlepoint: Electronic structure method terminated
-6245- scf: Setup of Coulomb evaluator failed
-6244- type_coulomb_setupBoundaryConditions: Could not setup numerical thresholds
-6243- type_latticepoint_update: Could not generate lattice points
-6242- xtb_calculator_singlepoint: Electronic structure method terminated
-6241- scf: Setup of Coulomb evaluator failed
-6240- type_coulomb_setupBoundaryConditions: Could not setup numerical thresholds
-6239- type_latticepoint_update: Could not generate lattice points
-6238- xtb_calculator_singlepoint: Electronic structure method terminated
-6237- scf: Setup of Coulomb evaluator failed
-6236- type_coulomb_setupBoundaryConditions: Could not setup numerical thresholds
-6235- type_latticepoint_update: Could not generate lattice points
-6234- xtb_calculator_singlepoint: Electronic structure method terminated
-6233- scf: Setup of Coulomb evaluator failed
-6232- type_coulomb_setupBoundaryConditions: Could not setup numerical thresholds
-6231- type_latticepoint_update: Could not generate lattice points
-6230- xtb_calculator_singlepoint: Electronic structure method terminated
-6229- scf: Setup of Coulomb evaluator failed
-6228- type_coulomb_setupBoundaryConditions: Could not setup numerical thresholds
-6227- type_latticepoint_update: Could not generate lattice points
-6226- xtb_calculator_singlepoint: Electronic structure method terminated
-6225- scf: Setup of Coulomb evaluator failed
-6224- type_coulomb_setupBoundaryConditions: Could not setup numerical thresholds
-6223- type_latticepoint_update: Could not generate lattice points
-6222- xtb_calculator_singlepoint: Electronic structure method terminated
-6221- scf: Setup of Coulomb evaluator failed
-6220- type_coulomb_setupBoundaryConditions: Could not setup numerical thresholds
-6219- type_latticepoint_update: Could not generate lattice points
-6218- xtb_calculator_singlepoint: Electronic structure method terminated
-6217- scf: Setup of Coulomb evaluator failed
-6216- type_coulomb_setupBoundaryConditions: Could not setup numerical thresholds
-6215- type_latticepoint_update: Could not generate lattice points
-6214- xtb_calculator_singlepoint: Electronic structure method terminated
-6213- scf: Setup of Coulomb evaluator failed
-6212- type_coulomb_setupBoundaryConditions: Could not setup numerical thresholds
-6211- type_latticepoint_update: Could not generate lattice points
-6210- xtb_calculator_singlepoint: Electronic structure method terminated
-6209- scf: Setup of Coulomb evaluator failed
-6208- type_coulomb_setupBoundaryConditions: Could not setup numerical thresholds
-6207- type_latticepoint_update: Could not generate lattice points
-6206- xtb_calculator_singlepoint: Electronic structure method terminated
-6205- scf: Setup of Coulomb evaluator failed
-6204- type_coulomb_setupBoundaryConditions: Could not setup numerical thresholds
-6203- type_latticepoint_update: Could not generate lattice points
-6202- xtb_calculator_singlepoint: Electronic structure method terminated
-6201- scf: Setup of Coulomb evaluator failed
-6200- type_coulomb_setupBoundaryConditions: Could not setup numerical thresholds
-6199- type_latticepoint_update: Could not generate lattice points
-6198- xtb_calculator_singlepoint: Electronic structure method terminated
-6197- scf: Setup of Coulomb evaluator failed
-6196- type_coulomb_setupBoundaryConditions: Could not setup numerical thresholds
-6195- type_latticepoint_update: Could not generate lattice points
-6194- xtb_calculator_singlepoint: Electronic structure method terminated
-6193- scf: Setup of Coulomb evaluator failed
-6192- type_coulomb_setupBoundaryConditions: Could not setup numerical thresholds
-6191- type_latticepoint_update: Could not generate lattice points
-6190- xtb_calculator_singlepoint: Electronic structure method terminated
-6189- scf: Setup of Coulomb evaluator failed
-6188- type_coulomb_setupBoundaryConditions: Could not setup numerical thresholds
-6187- type_latticepoint_update: Could not generate lattice points
-6186- xtb_calculator_singlepoint: Electronic structure method terminated
-6185- scf: Setup of Coulomb evaluator failed
-6184- type_coulomb_setupBoundaryConditions: Could not setup numerical thresholds
-6183- type_latticepoint_update: Could not generate lattice points
-6182- xtb_calculator_singlepoint: Electronic structure method terminated
-6181- scf: Setup of Coulomb evaluator failed
-6180- type_coulomb_setupBoundaryConditions: Could not setup numerical thresholds
-6179- type_latticepoint_update: Could not generate lattice points
-6178- xtb_calculator_singlepoint: Electronic structure method terminated
-6177- scf: Setup of Coulomb evaluator failed
-6176- type_coulomb_setupBoundaryConditions: Could not setup numerical thresholds
-6175- type_latticepoint_update: Could not generate lattice points
-6174- xtb_calculator_singlepoint: Electronic structure method terminated
-6173- scf: Setup of Coulomb evaluator failed
-6172- type_coulomb_setupBoundaryConditions: Could not setup numerical thresholds
-6171- type_latticepoint_update: Could not generate lattice points
-6170- xtb_calculator_singlepoint: Electronic structure method terminated
-6169- scf: Setup of Coulomb evaluator failed
-6168- type_coulomb_setupBoundaryConditions: Could not setup numerical thresholds
-6167- type_latticepoint_update: Could not generate lattice points
-6166- xtb_calculator_singlepoint: Electronic structure method terminated
-6165- scf: Setup of Coulomb evaluator failed
-6164- type_coulomb_setupBoundaryConditions: Could not setup numerical thresholds
-6163- type_latticepoint_update: Could not generate lattice points
-6162- xtb_calculator_singlepoint: Electronic structure method terminated
-6161- scf: Setup of Coulomb evaluator failed
-6160- type_coulomb_setupBoundaryConditions: Could not setup numerical thresholds
-6159- type_latticepoint_update: Could not generate lattice points
-6158- xtb_calculator_singlepoint: Electronic structure method terminated
-6157- scf: Setup of Coulomb evaluator failed
-6156- type_coulomb_setupBoundaryConditions: Could not setup numerical thresholds
-6155- type_latticepoint_update: Could not generate lattice points
-6154- xtb_calculator_singlepoint: Electronic structure method terminated
-6153- scf: Setup of Coulomb evaluator failed
-6152- type_coulomb_setupBoundaryConditions: Could not setup numerical thresholds
-6151- type_latticepoint_update: Could not generate lattice points
-6150- xtb_calculator_singlepoint: Electronic structure method terminated
-6149- scf: Setup of Coulomb evaluator failed
-6148- type_coulomb_setupBoundaryConditions: Could not setup numerical thresholds
-6147- type_latticepoint_update: Could not generate lattice points
-6146- xtb_calculator_singlepoint: Electronic structure method terminated
-6145- scf: Setup of Coulomb evaluator failed
-6144- type_coulomb_setupBoundaryConditions: Could not setup numerical thresholds
-6143- type_latticepoint_update: Could not generate lattice points
-6142- xtb_calculator_singlepoint: Electronic structure method terminated
-6141- scf: Setup of Coulomb evaluator failed
-6140- type_coulomb_setupBoundaryConditions: Could not setup numerical thresholds
-6139- type_latticepoint_update: Could not generate lattice points
-6138- xtb_calculator_singlepoint: Electronic structure method terminated
-6137- scf: Setup of Coulomb evaluator failed
-6136- type_coulomb_setupBoundaryConditions: Could not setup numerical thresholds
-6135- type_latticepoint_update: Could not generate lattice points
-6134- xtb_calculator_singlepoint: Electronic structure method terminated
-6133- scf: Setup of Coulomb evaluator failed
-6132- type_coulomb_setupBoundaryConditions: Could not setup numerical thresholds
-6131- type_latticepoint_update: Could not generate lattice points
-6130- xtb_calculator_singlepoint: Electronic structure method terminated
-6129- scf: Setup of Coulomb evaluator failed
-6128- type_coulomb_setupBoundaryConditions: Could not setup numerical thresholds
-6127- type_latticepoint_update: Could not generate lattice points
-6126- xtb_calculator_singlepoint: Electronic structure method terminated
-6125- scf: Setup of Coulomb evaluator failed
-6124- type_coulomb_setupBoundaryConditions: Could not setup numerical thresholds
-6123- type_latticepoint_update: Could not generate lattice points
-6122- xtb_calculator_singlepoint: Electronic structure method terminated
-6121- scf: Setup of Coulomb evaluator failed
-6120- type_coulomb_setupBoundaryConditions: Could not setup numerical thresholds
-6119- type_latticepoint_update: Could not generate lattice points
-6118- xtb_calculator_singlepoint: Electronic structure method terminated
-6117- scf: Setup of Coulomb evaluator failed
-6116- type_coulomb_setupBoundaryConditions: Could not setup numerical thresholds
-6115- type_latticepoint_update: Could not generate lattice points
-6114- xtb_calculator_singlepoint: Electronic structure method terminated
-6113- scf: Setup of Coulomb evaluator failed
-6112- type_coulomb_setupBoundaryConditions: Could not setup numerical thresholds
-6111- type_latticepoint_update: Could not generate lattice points
-6110- xtb_calculator_singlepoint: Electronic structure method terminated
-6109- scf: Setup of Coulomb evaluator failed
-6108- type_coulomb_setupBoundaryConditions: Could not setup numerical thresholds
-6107- type_latticepoint_update: Could not generate lattice points
-6106- xtb_calculator_singlepoint: Electronic structure method terminated
-6105- scf: Setup of Coulomb evaluator failed
-6104- type_coulomb_setupBoundaryConditions: Could not setup numerical thresholds
-6103- type_latticepoint_update: Could not generate lattice points
-6102- xtb_calculator_singlepoint: Electronic structure method terminated
-6101- scf: Setup of Coulomb evaluator failed
-6100- type_coulomb_setupBoundaryConditions: Could not setup numerical thresholds
-6099- type_latticepoint_update: Could not generate lattice points
-6098- xtb_calculator_singlepoint: Electronic structure method terminated
-6097- scf: Setup of Coulomb evaluator failed
-6096- type_coulomb_setupBoundaryConditions: Could not setup numerical thresholds
-6095- type_latticepoint_update: Could not generate lattice points
-6094- xtb_calculator_singlepoint: Electronic structure method terminated
-6093- scf: Setup of Coulomb evaluator failed
-6092- type_coulomb_setupBoundaryConditions: Could not setup numerical thresholds
-6091- type_latticepoint_update: Could not generate lattice points
-6090- xtb_calculator_singlepoint: Electronic structure method terminated
-6089- scf: Setup of Coulomb evaluator failed
-6088- type_coulomb_setupBoundaryConditions: Could not setup numerical thresholds
-6087- type_latticepoint_update: Could not generate lattice points
-6086- xtb_calculator_singlepoint: Electronic structure method terminated
-6085- scf: Setup of Coulomb evaluator failed
-6084- type_coulomb_setupBoundaryConditions: Could not setup numerical thresholds
-6083- type_latticepoint_update: Could not generate lattice points
-6082- xtb_calculator_singlepoint: Electronic structure method terminated
-6081- scf: Setup of Coulomb evaluator failed
-6080- type_coulomb_setupBoundaryConditions: Could not setup numerical thresholds
-6079- type_latticepoint_update: Could not generate lattice points
-6078- xtb_calculator_singlepoint: Electronic structure method terminated
-6077- scf: Setup of Coulomb evaluator failed
-6076- type_coulomb_setupBoundaryConditions: Could not setup numerical thresholds
-6075- type_latticepoint_update: Could not generate lattice points
-6074- xtb_calculator_singlepoint: Electronic structure method terminated
-6073- scf: Setup of Coulomb evaluator failed
-6072- type_coulomb_setupBoundaryConditions: Could not setup numerical thresholds
-6071- type_latticepoint_update: Could not generate lattice points
-6070- xtb_calculator_singlepoint: Electronic structure method terminated
-6069- scf: Setup of Coulomb evaluator failed
-6068- type_coulomb_setupBoundaryConditions: Could not setup numerical thresholds
-6067- type_latticepoint_update: Could not generate lattice points
-6066- xtb_calculator_singlepoint: Electronic structure method terminated
-6065- scf: Setup of Coulomb evaluator failed
-6064- type_coulomb_setupBoundaryConditions: Could not setup numerical thresholds
-6063- type_latticepoint_update: Could not generate lattice points
-6062- xtb_calculator_singlepoint: Electronic structure method terminated
-6061- scf: Setup of Coulomb evaluator failed
-6060- type_coulomb_setupBoundaryConditions: Could not setup numerical thresholds
-6059- type_latticepoint_update: Could not generate lattice points
-6058- xtb_calculator_singlepoint: Electronic structure method terminated
-6057- scf: Setup of Coulomb evaluator failed
-6056- type_coulomb_setupBoundaryConditions: Could not setup numerical thresholds
-6055- type_latticepoint_update: Could not generate lattice points
-6054- xtb_calculator_singlepoint: Electronic structure method terminated
-6053- scf: Setup of Coulomb evaluator failed
-6052- type_coulomb_setupBoundaryConditions: Could not setup numerical thresholds
-6051- type_latticepoint_update: Could not generate lattice points
-6050- xtb_calculator_singlepoint: Electronic structure method terminated
-6049- scf: Setup of Coulomb evaluator failed
-6048- type_coulomb_setupBoundaryConditions: Could not setup numerical thresholds
-6047- type_latticepoint_update: Could not generate lattice points
-6046- xtb_calculator_singlepoint: Electronic structure method terminated
-6045- scf: Setup of Coulomb evaluator failed
-6044- type_coulomb_setupBoundaryConditions: Could not setup numerical thresholds
-6043- type_latticepoint_update: Could not generate lattice points
-6042- xtb_calculator_singlepoint: Electronic structure method terminated
-6041- scf: Setup of Coulomb evaluator failed
-6040- type_coulomb_setupBoundaryConditions: Could not setup numerical thresholds
-6039- type_latticepoint_update: Could not generate lattice points
-6038- xtb_calculator_singlepoint: Electronic structure method terminated
-6037- scf: Setup of Coulomb evaluator failed
-6036- type_coulomb_setupBoundaryConditions: Could not setup numerical thresholds
-6035- type_latticepoint_update: Could not generate lattice points
-6034- xtb_calculator_singlepoint: Electronic structure method terminated
-6033- scf: Setup of Coulomb evaluator failed
-6032- type_coulomb_setupBoundaryConditions: Could not setup numerical thresholds
-6031- type_latticepoint_update: Could not generate lattice points
-6030- xtb_calculator_singlepoint: Electronic structure method terminated
-6029- scf: Setup of Coulomb evaluator failed
-6028- type_coulomb_setupBoundaryConditions: Could not setup numerical thresholds
-6027- type_latticepoint_update: Could not generate lattice points
-6026- xtb_calculator_singlepoint: Electronic structure method terminated
-6025- scf: Setup of Coulomb evaluator failed
-6024- type_coulomb_setupBoundaryConditions: Could not setup numerical thresholds
-6023- type_latticepoint_update: Could not generate lattice points
-6022- xtb_calculator_singlepoint: Electronic structure method terminated
-6021- scf: Setup of Coulomb evaluator failed
-6020- type_coulomb_setupBoundaryConditions: Could not setup numerical thresholds
-6019- type_latticepoint_update: Could not generate lattice points
-6018- xtb_calculator_singlepoint: Electronic structure method terminated
-6017- scf: Setup of Coulomb evaluator failed
-6016- type_coulomb_setupBoundaryConditions: Could not setup numerical thresholds
-6015- type_latticepoint_update: Could not generate lattice points
-6014- xtb_calculator_singlepoint: Electronic structure method terminated
-6013- scf: Setup of Coulomb evaluator failed
-6012- type_coulomb_setupBoundaryConditions: Could not setup numerical thresholds
-6011- type_latticepoint_update: Could not generate lattice points
-6010- xtb_calculator_singlepoint: Electronic structure method terminated
-6009- scf: Setup of Coulomb evaluator failed
-6008- type_coulomb_setupBoundaryConditions: Could not setup numerical thresholds
-6007- type_latticepoint_update: Could not generate lattice points
-6006- xtb_calculator_singlepoint: Electronic structure method terminated
-6005- scf: Setup of Coulomb evaluator failed
-6004- type_coulomb_setupBoundaryConditions: Could not setup numerical thresholds
-6003- type_latticepoint_update: Could not generate lattice points
-6002- xtb_calculator_singlepoint: Electronic structure method terminated
-6001- scf: Setup of Coulomb evaluator failed
-6000- type_coulomb_setupBoundaryConditions: Could not setup numerical thresholds
-5999- type_latticepoint_update: Could not generate lattice points
-5998- xtb_calculator_singlepoint: Electronic structure method terminated
-5997- scf: Setup of Coulomb evaluator failed
-5996- type_coulomb_setupBoundaryConditions: Could not setup numerical thresholds
-5995- type_latticepoint_update: Could not generate lattice points
-5994- xtb_calculator_singlepoint: Electronic structure method terminated
-5993- scf: Setup of Coulomb evaluator failed
-5992- type_coulomb_setupBoundaryConditions: Could not setup numerical thresholds
-5991- type_latticepoint_update: Could not generate lattice points
-5990- xtb_calculator_singlepoint: Electronic structure method terminated
-5989- scf: Setup of Coulomb evaluator failed
-5988- type_coulomb_setupBoundaryConditions: Could not setup numerical thresholds
-5987- type_latticepoint_update: Could not generate lattice points
-5986- xtb_calculator_singlepoint: Electronic structure method terminated
-5985- scf: Setup of Coulomb evaluator failed
-5984- type_coulomb_setupBoundaryConditions: Could not setup numerical thresholds
-5983- type_latticepoint_update: Could not generate lattice points
-5982- xtb_calculator_singlepoint: Electronic structure method terminated
-5981- scf: Setup of Coulomb evaluator failed
-5980- type_coulomb_setupBoundaryConditions: Could not setup numerical thresholds
-5979- type_latticepoint_update: Could not generate lattice points
-5978- xtb_calculator_singlepoint: Electronic structure method terminated
-5977- scf: Setup of Coulomb evaluator failed
-5976- type_coulomb_setupBoundaryConditions: Could not setup numerical thresholds
-5975- type_latticepoint_update: Could not generate lattice points
-5974- xtb_calculator_singlepoint: Electronic structure method terminated
-5973- scf: Setup of Coulomb evaluator failed
-5972- type_coulomb_setupBoundaryConditions: Could not setup numerical thresholds
-5971- type_latticepoint_update: Could not generate lattice points
-5970- xtb_calculator_singlepoint: Electronic structure method terminated
-5969- scf: Setup of Coulomb evaluator failed
-5968- type_coulomb_setupBoundaryConditions: Could not setup numerical thresholds
-5967- type_latticepoint_update: Could not generate lattice points
-5966- xtb_calculator_singlepoint: Electronic structure method terminated
-5965- scf: Setup of Coulomb evaluator failed
-5964- type_coulomb_setupBoundaryConditions: Could not setup numerical thresholds
-5963- type_latticepoint_update: Could not generate lattice points
-5962- xtb_calculator_singlepoint: Electronic structure method terminated
-5961- scf: Setup of Coulomb evaluator failed
-5960- type_coulomb_setupBoundaryConditions: Could not setup numerical thresholds
-5959- type_latticepoint_update: Could not generate lattice points
-5958- xtb_calculator_singlepoint: Electronic structure method terminated
-5957- scf: Setup of Coulomb evaluator failed
-5956- type_coulomb_setupBoundaryConditions: Could not setup numerical thresholds
-5955- type_latticepoint_update: Could not generate lattice points
-5954- xtb_calculator_singlepoint: Electronic structure method terminated
-5953- scf: Setup of Coulomb evaluator failed
-5952- type_coulomb_setupBoundaryConditions: Could not setup numerical thresholds
-5951- type_latticepoint_update: Could not generate lattice points
-5950- xtb_calculator_singlepoint: Electronic structure method terminated
-5949- scf: Setup of Coulomb evaluator failed
-5948- type_coulomb_setupBoundaryConditions: Could not setup numerical thresholds
-5947- type_latticepoint_update: Could not generate lattice points
-5946- xtb_calculator_singlepoint: Electronic structure method terminated
-5945- scf: Setup of Coulomb evaluator failed
-5944- type_coulomb_setupBoundaryConditions: Could not setup numerical thresholds
-5943- type_latticepoint_update: Could not generate lattice points
-5942- xtb_calculator_singlepoint: Electronic structure method terminated
-5941- scf: Setup of Coulomb evaluator failed
-5940- type_coulomb_setupBoundaryConditions: Could not setup numerical thresholds
-5939- type_latticepoint_update: Could not generate lattice points
-5938- xtb_calculator_singlepoint: Electronic structure method terminated
-5937- scf: Setup of Coulomb evaluator failed
-5936- type_coulomb_setupBoundaryConditions: Could not setup numerical thresholds
-5935- type_latticepoint_update: Could not generate lattice points
-5934- xtb_calculator_singlepoint: Electronic structure method terminated
-5933- scf: Setup of Coulomb evaluator failed
-5932- type_coulomb_setupBoundaryConditions: Could not setup numerical thresholds
-5931- type_latticepoint_update: Could not generate lattice points
-5930- xtb_calculator_singlepoint: Electronic structure method terminated
-5929- scf: Setup of Coulomb evaluator failed
-5928- type_coulomb_setupBoundaryConditions: Could not setup numerical thresholds
-5927- type_latticepoint_update: Could not generate lattice points
-5926- xtb_calculator_singlepoint: Electronic structure method terminated
-5925- scf: Setup of Coulomb evaluator failed
-5924- type_coulomb_setupBoundaryConditions: Could not setup numerical thresholds
-5923- type_latticepoint_update: Could not generate lattice points
-5922- xtb_calculator_singlepoint: Electronic structure method terminated
-5921- scf: Setup of Coulomb evaluator failed
-5920- type_coulomb_setupBoundaryConditions: Could not setup numerical thresholds
-5919- type_latticepoint_update: Could not generate lattice points
-5918- xtb_calculator_singlepoint: Electronic structure method terminated
-5917- scf: Setup of Coulomb evaluator failed
-5916- type_coulomb_setupBoundaryConditions: Could not setup numerical thresholds
-5915- type_latticepoint_update: Could not generate lattice points
-5914- xtb_calculator_singlepoint: Electronic structure method terminated
-5913- scf: Setup of Coulomb evaluator failed
-5912- type_coulomb_setupBoundaryConditions: Could not setup numerical thresholds
-5911- type_latticepoint_update: Could not generate lattice points
-5910- xtb_calculator_singlepoint: Electronic structure method terminated
-5909- scf: Setup of Coulomb evaluator failed
-5908- type_coulomb_setupBoundaryConditions: Could not setup numerical thresholds
-5907- type_latticepoint_update: Could not generate lattice points
-5906- xtb_calculator_singlepoint: Electronic structure method terminated
-5905- scf: Setup of Coulomb evaluator failed
-5904- type_coulomb_setupBoundaryConditions: Could not setup numerical thresholds
-5903- type_latticepoint_update: Could not generate lattice points
-5902- xtb_calculator_singlepoint: Electronic structure method terminated
-5901- scf: Setup of Coulomb evaluator failed
-5900- type_coulomb_setupBoundaryConditions: Could not setup numerical thresholds
-5899- type_latticepoint_update: Could not generate lattice points
-5898- xtb_calculator_singlepoint: Electronic structure method terminated
-5897- scf: Setup of Coulomb evaluator failed
-5896- type_coulomb_setupBoundaryConditions: Could not setup numerical thresholds
-5895- type_latticepoint_update: Could not generate lattice points
-5894- xtb_calculator_singlepoint: Electronic structure method terminated
-5893- scf: Setup of Coulomb evaluator failed
-5892- type_coulomb_setupBoundaryConditions: Could not setup numerical thresholds
-5891- type_latticepoint_update: Could not generate lattice points
-5890- xtb_calculator_singlepoint: Electronic structure method terminated
-5889- scf: Setup of Coulomb evaluator failed
-5888- type_coulomb_setupBoundaryConditions: Could not setup numerical thresholds
-5887- type_latticepoint_update: Could not generate lattice points
-5886- xtb_calculator_singlepoint: Electronic structure method terminated
-5885- scf: Setup of Coulomb evaluator failed
-5884- type_coulomb_setupBoundaryConditions: Could not setup numerical thresholds
-5883- type_latticepoint_update: Could not generate lattice points
-5882- xtb_calculator_singlepoint: Electronic structure method terminated
-5881- scf: Setup of Coulomb evaluator failed
-5880- type_coulomb_setupBoundaryConditions: Could not setup numerical thresholds
-5879- type_latticepoint_update: Could not generate lattice points
-5878- xtb_calculator_singlepoint: Electronic structure method terminated
-5877- scf: Setup of Coulomb evaluator failed
-5876- type_coulomb_setupBoundaryConditions: Could not setup numerical thresholds
-5875- type_latticepoint_update: Could not generate lattice points
-5874- xtb_calculator_singlepoint: Electronic structure method terminated
-5873- scf: Setup of Coulomb evaluator failed
-5872- type_coulomb_setupBoundaryConditions: Could not setup numerical thresholds
-5871- type_latticepoint_update: Could not generate lattice points
-5870- xtb_calculator_singlepoint: Electronic structure method terminated
-5869- scf: Setup of Coulomb evaluator failed
-5868- type_coulomb_setupBoundaryConditions: Could not setup numerical thresholds
-5867- type_latticepoint_update: Could not generate lattice points
-5866- xtb_calculator_singlepoint: Electronic structure method terminated
-5865- scf: Setup of Coulomb evaluator failed
-5864- type_coulomb_setupBoundaryConditions: Could not setup numerical thresholds
-5863- type_latticepoint_update: Could not generate lattice points
-5862- xtb_calculator_singlepoint: Electronic structure method terminated
-5861- scf: Setup of Coulomb evaluator failed
-5860- type_coulomb_setupBoundaryConditions: Could not setup numerical thresholds
-5859- type_latticepoint_update: Could not generate lattice points
-5858- xtb_calculator_singlepoint: Electronic structure method terminated
-5857- scf: Setup of Coulomb evaluator failed
-5856- type_coulomb_setupBoundaryConditions: Could not setup numerical thresholds
-5855- type_latticepoint_update: Could not generate lattice points
-5854- xtb_calculator_singlepoint: Electronic structure method terminated
-5853- scf: Setup of Coulomb evaluator failed
-5852- type_coulomb_setupBoundaryConditions: Could not setup numerical thresholds
-5851- type_latticepoint_update: Could not generate lattice points
-5850- xtb_calculator_singlepoint: Electronic structure method terminated
-5849- scf: Setup of Coulomb evaluator failed
-5848- type_coulomb_setupBoundaryConditions: Could not setup numerical thresholds
-5847- type_latticepoint_update: Could not generate lattice points
-5846- xtb_calculator_singlepoint: Electronic structure method terminated
-5845- scf: Setup of Coulomb evaluator failed
-5844- type_coulomb_setupBoundaryConditions: Could not setup numerical thresholds
-5843- type_latticepoint_update: Could not generate lattice points
-5842- xtb_calculator_singlepoint: Electronic structure method terminated
-5841- scf: Setup of Coulomb evaluator failed
-5840- type_coulomb_setupBoundaryConditions: Could not setup numerical thresholds
-5839- type_latticepoint_update: Could not generate lattice points
-5838- xtb_calculator_singlepoint: Electronic structure method terminated
-5837- scf: Setup of Coulomb evaluator failed
-5836- type_coulomb_setupBoundaryConditions: Could not setup numerical thresholds
-5835- type_latticepoint_update: Could not generate lattice points
-5834- xtb_calculator_singlepoint: Electronic structure method terminated
-5833- scf: Setup of Coulomb evaluator failed
-5832- type_coulomb_setupBoundaryConditions: Could not setup numerical thresholds
-5831- type_latticepoint_update: Could not generate lattice points
-5830- xtb_calculator_singlepoint: Electronic structure method terminated
-5829- scf: Setup of Coulomb evaluator failed
-5828- type_coulomb_setupBoundaryConditions: Could not setup numerical thresholds
-5827- type_latticepoint_update: Could not generate lattice points
-5826- xtb_calculator_singlepoint: Electronic structure method terminated
-5825- scf: Setup of Coulomb evaluator failed
-5824- type_coulomb_setupBoundaryConditions: Could not setup numerical thresholds
-5823- type_latticepoint_update: Could not generate lattice points
-5822- xtb_calculator_singlepoint: Electronic structure method terminated
-5821- scf: Setup of Coulomb evaluator failed
-5820- type_coulomb_setupBoundaryConditions: Could not setup numerical thresholds
-5819- type_latticepoint_update: Could not generate lattice points
-5818- xtb_calculator_singlepoint: Electronic structure method terminated
-5817- scf: Setup of Coulomb evaluator failed
-5816- type_coulomb_setupBoundaryConditions: Could not setup numerical thresholds
-5815- type_latticepoint_update: Could not generate lattice points
-5814- xtb_calculator_singlepoint: Electronic structure method terminated
-5813- scf: Setup of Coulomb evaluator failed
-5812- type_coulomb_setupBoundaryConditions: Could not setup numerical thresholds
-5811- type_latticepoint_update: Could not generate lattice points
-5810- xtb_calculator_singlepoint: Electronic structure method terminated
-5809- scf: Setup of Coulomb evaluator failed
-5808- type_coulomb_setupBoundaryConditions: Could not setup numerical thresholds
-5807- type_latticepoint_update: Could not generate lattice points
-5806- xtb_calculator_singlepoint: Electronic structure method terminated
-5805- scf: Setup of Coulomb evaluator failed
-5804- type_coulomb_setupBoundaryConditions: Could not setup numerical thresholds
-5803- type_latticepoint_update: Could not generate lattice points
-5802- xtb_calculator_singlepoint: Electronic structure method terminated
-5801- scf: Setup of Coulomb evaluator failed
-5800- type_coulomb_setupBoundaryConditions: Could not setup numerical thresholds
-5799- type_latticepoint_update: Could not generate lattice points
-5798- xtb_calculator_singlepoint: Electronic structure method terminated
-5797- scf: Setup of Coulomb evaluator failed
-5796- type_coulomb_setupBoundaryConditions: Could not setup numerical thresholds
-5795- type_latticepoint_update: Could not generate lattice points
-5794- xtb_calculator_singlepoint: Electronic structure method terminated
-5793- scf: Setup of Coulomb evaluator failed
-5792- type_coulomb_setupBoundaryConditions: Could not setup numerical thresholds
-5791- type_latticepoint_update: Could not generate lattice points
-5790- xtb_calculator_singlepoint: Electronic structure method terminated
-5789- scf: Setup of Coulomb evaluator failed
-5788- type_coulomb_setupBoundaryConditions: Could not setup numerical thresholds
-5787- type_latticepoint_update: Could not generate lattice points
-5786- xtb_calculator_singlepoint: Electronic structure method terminated
-5785- scf: Setup of Coulomb evaluator failed
-5784- type_coulomb_setupBoundaryConditions: Could not setup numerical thresholds
-5783- type_latticepoint_update: Could not generate lattice points
-5782- xtb_calculator_singlepoint: Electronic structure method terminated
-5781- scf: Setup of Coulomb evaluator failed
-5780- type_coulomb_setupBoundaryConditions: Could not setup numerical thresholds
-5779- type_latticepoint_update: Could not generate lattice points
-5778- xtb_calculator_singlepoint: Electronic structure method terminated
-5777- scf: Setup of Coulomb evaluator failed
-5776- type_coulomb_setupBoundaryConditions: Could not setup numerical thresholds
-5775- type_latticepoint_update: Could not generate lattice points
-5774- xtb_calculator_singlepoint: Electronic structure method terminated
-5773- scf: Setup of Coulomb evaluator failed
-5772- type_coulomb_setupBoundaryConditions: Could not setup numerical thresholds
-5771- type_latticepoint_update: Could not generate lattice points
-5770- xtb_calculator_singlepoint: Electronic structure method terminated
-5769- scf: Setup of Coulomb evaluator failed
-5768- type_coulomb_setupBoundaryConditions: Could not setup numerical thresholds
-5767- type_latticepoint_update: Could not generate lattice points
-5766- xtb_calculator_singlepoint: Electronic structure method terminated
-5765- scf: Setup of Coulomb evaluator failed
-5764- type_coulomb_setupBoundaryConditions: Could not setup numerical thresholds
-5763- type_latticepoint_update: Could not generate lattice points
-5762- xtb_calculator_singlepoint: Electronic structure method terminated
-5761- scf: Setup of Coulomb evaluator failed
-5760- type_coulomb_setupBoundaryConditions: Could not setup numerical thresholds
-5759- type_latticepoint_update: Could not generate lattice points
-5758- xtb_calculator_singlepoint: Electronic structure method terminated
-5757- scf: Setup of Coulomb evaluator failed
-5756- type_coulomb_setupBoundaryConditions: Could not setup numerical thresholds
-5755- type_latticepoint_update: Could not generate lattice points
-5754- xtb_calculator_singlepoint: Electronic structure method terminated
-5753- scf: Setup of Coulomb evaluator failed
-5752- type_coulomb_setupBoundaryConditions: Could not setup numerical thresholds
-5751- type_latticepoint_update: Could not generate lattice points
-5750- xtb_calculator_singlepoint: Electronic structure method terminated
-5749- scf: Setup of Coulomb evaluator failed
-5748- type_coulomb_setupBoundaryConditions: Could not setup numerical thresholds
-5747- type_latticepoint_update: Could not generate lattice points
-5746- xtb_calculator_singlepoint: Electronic structure method terminated
-5745- scf: Setup of Coulomb evaluator failed
-5744- type_coulomb_setupBoundaryConditions: Could not setup numerical thresholds
-5743- type_latticepoint_update: Could not generate lattice points
-5742- xtb_calculator_singlepoint: Electronic structure method terminated
-5741- scf: Setup of Coulomb evaluator failed
-5740- type_coulomb_setupBoundaryConditions: Could not setup numerical thresholds
-5739- type_latticepoint_update: Could not generate lattice points
-5738- xtb_calculator_singlepoint: Electronic structure method terminated
-5737- scf: Setup of Coulomb evaluator failed
-5736- type_coulomb_setupBoundaryConditions: Could not setup numerical thresholds
-5735- type_latticepoint_update: Could not generate lattice points
-5734- xtb_calculator_singlepoint: Electronic structure method terminated
-5733- scf: Setup of Coulomb evaluator failed
-5732- type_coulomb_setupBoundaryConditions: Could not setup numerical thresholds
-5731- type_latticepoint_update: Could not generate lattice points
-5730- xtb_calculator_singlepoint: Electronic structure method terminated
-5729- scf: Setup of Coulomb evaluator failed
-5728- type_coulomb_setupBoundaryConditions: Could not setup numerical thresholds
-5727- type_latticepoint_update: Could not generate lattice points
-5726- xtb_calculator_singlepoint: Electronic structure method terminated
-5725- scf: Setup of Coulomb evaluator failed
-5724- type_coulomb_setupBoundaryConditions: Could not setup numerical thresholds
-5723- type_latticepoint_update: Could not generate lattice points
-5722- xtb_calculator_singlepoint: Electronic structure method terminated
-5721- scf: Setup of Coulomb evaluator failed
-5720- type_coulomb_setupBoundaryConditions: Could not setup numerical thresholds
-5719- type_latticepoint_update: Could not generate lattice points
-5718- xtb_calculator_singlepoint: Electronic structure method terminated
-5717- scf: Setup of Coulomb evaluator failed
-5716- type_coulomb_setupBoundaryConditions: Could not setup numerical thresholds
-5715- type_latticepoint_update: Could not generate lattice points
-5714- xtb_calculator_singlepoint: Electronic structure method terminated
-5713- scf: Setup of Coulomb evaluator failed
-5712- type_coulomb_setupBoundaryConditions: Could not setup numerical thresholds
-5711- type_latticepoint_update: Could not generate lattice points
-5710- xtb_calculator_singlepoint: Electronic structure method terminated
-5709- scf: Setup of Coulomb evaluator failed
-5708- type_coulomb_setupBoundaryConditions: Could not setup numerical thresholds
-5707- type_latticepoint_update: Could not generate lattice points
-5706- xtb_calculator_singlepoint: Electronic structure method terminated
-5705- scf: Setup of Coulomb evaluator failed
-5704- type_coulomb_setupBoundaryConditions: Could not setup numerical thresholds
-5703- type_latticepoint_update: Could not generate lattice points
-5702- xtb_calculator_singlepoint: Electronic structure method terminated
-5701- scf: Setup of Coulomb evaluator failed
-5700- type_coulomb_setupBoundaryConditions: Could not setup numerical thresholds
-5699- type_latticepoint_update: Could not generate lattice points
-5698- xtb_calculator_singlepoint: Electronic structure method terminated
-5697- scf: Setup of Coulomb evaluator failed
-5696- type_coulomb_setupBoundaryConditions: Could not setup numerical thresholds
-5695- type_latticepoint_update: Could not generate lattice points
-5694- xtb_calculator_singlepoint: Electronic structure method terminated
-5693- scf: Setup of Coulomb evaluator failed
-5692- type_coulomb_setupBoundaryConditions: Could not setup numerical thresholds
-5691- type_latticepoint_update: Could not generate lattice points
-5690- xtb_calculator_singlepoint: Electronic structure method terminated
-5689- scf: Setup of Coulomb evaluator failed
-5688- type_coulomb_setupBoundaryConditions: Could not setup numerical thresholds
-5687- type_latticepoint_update: Could not generate lattice points
-5686- xtb_calculator_singlepoint: Electronic structure method terminated
-5685- scf: Setup of Coulomb evaluator failed
-5684- type_coulomb_setupBoundaryConditions: Could not setup numerical thresholds
-5683- type_latticepoint_update: Could not generate lattice points
-5682- xtb_calculator_singlepoint: Electronic structure method terminated
-5681- scf: Setup of Coulomb evaluator failed
-5680- type_coulomb_setupBoundaryConditions: Could not setup numerical thresholds
-5679- type_latticepoint_update: Could not generate lattice points
-5678- xtb_calculator_singlepoint: Electronic structure method terminated
-5677- scf: Setup of Coulomb evaluator failed
-5676- type_coulomb_setupBoundaryConditions: Could not setup numerical thresholds
-5675- type_latticepoint_update: Could not generate lattice points
-5674- xtb_calculator_singlepoint: Electronic structure method terminated
-5673- scf: Setup of Coulomb evaluator failed
-5672- type_coulomb_setupBoundaryConditions: Could not setup numerical thresholds
-5671- type_latticepoint_update: Could not generate lattice points
-5670- xtb_calculator_singlepoint: Electronic structure method terminated
-5669- scf: Setup of Coulomb evaluator failed
-5668- type_coulomb_setupBoundaryConditions: Could not setup numerical thresholds
-5667- type_latticepoint_update: Could not generate lattice points
-5666- xtb_calculator_singlepoint: Electronic structure method terminated
-5665- scf: Setup of Coulomb evaluator failed
-5664- type_coulomb_setupBoundaryConditions: Could not setup numerical thresholds
-5663- type_latticepoint_update: Could not generate lattice points
-5662- xtb_calculator_singlepoint: Electronic structure method terminated
-5661- scf: Setup of Coulomb evaluator failed
-5660- type_coulomb_setupBoundaryConditions: Could not setup numerical thresholds
-5659- type_latticepoint_update: Could not generate lattice points
-5658- xtb_calculator_singlepoint: Electronic structure method terminated
-5657- scf: Setup of Coulomb evaluator failed
-5656- type_coulomb_setupBoundaryConditions: Could not setup numerical thresholds
-5655- type_latticepoint_update: Could not generate lattice points
-5654- xtb_calculator_singlepoint: Electronic structure method terminated
-5653- scf: Setup of Coulomb evaluator failed
-5652- type_coulomb_setupBoundaryConditions: Could not setup numerical thresholds
-5651- type_latticepoint_update: Could not generate lattice points
-5650- xtb_calculator_singlepoint: Electronic structure method terminated
-5649- scf: Setup of Coulomb evaluator failed
-5648- type_coulomb_setupBoundaryConditions: Could not setup numerical thresholds
-5647- type_latticepoint_update: Could not generate lattice points
-5646- xtb_calculator_singlepoint: Electronic structure method terminated
-5645- scf: Setup of Coulomb evaluator failed
-5644- type_coulomb_setupBoundaryConditions: Could not setup numerical thresholds
-5643- type_latticepoint_update: Could not generate lattice points
-5642- xtb_calculator_singlepoint: Electronic structure method terminated
-5641- scf: Setup of Coulomb evaluator failed
-5640- type_coulomb_setupBoundaryConditions: Could not setup numerical thresholds
-5639- type_latticepoint_update: Could not generate lattice points
-5638- xtb_calculator_singlepoint: Electronic structure method terminated
-5637- scf: Setup of Coulomb evaluator failed
-5636- type_coulomb_setupBoundaryConditions: Could not setup numerical thresholds
-5635- type_latticepoint_update: Could not generate lattice points
-5634- xtb_calculator_singlepoint: Electronic structure method terminated
-5633- scf: Setup of Coulomb evaluator failed
-5632- type_coulomb_setupBoundaryConditions: Could not setup numerical thresholds
-5631- type_latticepoint_update: Could not generate lattice points
-5630- xtb_calculator_singlepoint: Electronic structure method terminated
-5629- scf: Setup of Coulomb evaluator failed
-5628- type_coulomb_setupBoundaryConditions: Could not setup numerical thresholds
-5627- type_latticepoint_update: Could not generate lattice points
-5626- xtb_calculator_singlepoint: Electronic structure method terminated
-5625- scf: Setup of Coulomb evaluator failed
-5624- type_coulomb_setupBoundaryConditions: Could not setup numerical thresholds
-5623- type_latticepoint_update: Could not generate lattice points
-5622- xtb_calculator_singlepoint: Electronic structure method terminated
-5621- scf: Setup of Coulomb evaluator failed
-5620- type_coulomb_setupBoundaryConditions: Could not setup numerical thresholds
-5619- type_latticepoint_update: Could not generate lattice points
-5618- xtb_calculator_singlepoint: Electronic structure method terminated
-5617- scf: Setup of Coulomb evaluator failed
-5616- type_coulomb_setupBoundaryConditions: Could not setup numerical thresholds
-5615- type_latticepoint_update: Could not generate lattice points
-5614- xtb_calculator_singlepoint: Electronic structure method terminated
-5613- scf: Setup of Coulomb evaluator failed
-5612- type_coulomb_setupBoundaryConditions: Could not setup numerical thresholds
-5611- type_latticepoint_update: Could not generate lattice points
-5610- xtb_calculator_singlepoint: Electronic structure method terminated
-5609- scf: Setup of Coulomb evaluator failed
-5608- type_coulomb_setupBoundaryConditions: Could not setup numerical thresholds
-5607- type_latticepoint_update: Could not generate lattice points
-5606- xtb_calculator_singlepoint: Electronic structure method terminated
-5605- scf: Setup of Coulomb evaluator failed
-5604- type_coulomb_setupBoundaryConditions: Could not setup numerical thresholds
-5603- type_latticepoint_update: Could not generate lattice points
-5602- xtb_calculator_singlepoint: Electronic structure method terminated
-5601- scf: Setup of Coulomb evaluator failed
-5600- type_coulomb_setupBoundaryConditions: Could not setup numerical thresholds
-5599- type_latticepoint_update: Could not generate lattice points
-5598- xtb_calculator_singlepoint: Electronic structure method terminated
-5597- scf: Setup of Coulomb evaluator failed
-5596- type_coulomb_setupBoundaryConditions: Could not setup numerical thresholds
-5595- type_latticepoint_update: Could not generate lattice points
-5594- xtb_calculator_singlepoint: Electronic structure method terminated
-5593- scf: Setup of Coulomb evaluator failed
-5592- type_coulomb_setupBoundaryConditions: Could not setup numerical thresholds
-5591- type_latticepoint_update: Could not generate lattice points
-5590- xtb_calculator_singlepoint: Electronic structure method terminated
-5589- scf: Setup of Coulomb evaluator failed
-5588- type_coulomb_setupBoundaryConditions: Could not setup numerical thresholds
-5587- type_latticepoint_update: Could not generate lattice points
-5586- xtb_calculator_singlepoint: Electronic structure method terminated
-5585- scf: Setup of Coulomb evaluator failed
-5584- type_coulomb_setupBoundaryConditions: Could not setup numerical thresholds
-5583- type_latticepoint_update: Could not generate lattice points
-5582- xtb_calculator_singlepoint: Electronic structure method terminated
-5581- scf: Setup of Coulomb evaluator failed
-5580- type_coulomb_setupBoundaryConditions: Could not setup numerical thresholds
-5579- type_latticepoint_update: Could not generate lattice points
-5578- xtb_calculator_singlepoint: Electronic structure method terminated
-5577- scf: Setup of Coulomb evaluator failed
-5576- type_coulomb_setupBoundaryConditions: Could not setup numerical thresholds
-5575- type_latticepoint_update: Could not generate lattice points
-5574- xtb_calculator_singlepoint: Electronic structure method terminated
-5573- scf: Setup of Coulomb evaluator failed
-5572- type_coulomb_setupBoundaryConditions: Could not setup numerical thresholds
-5571- type_latticepoint_update: Could not generate lattice points
-5570- xtb_calculator_singlepoint: Electronic structure method terminated
-5569- scf: Setup of Coulomb evaluator failed
-5568- type_coulomb_setupBoundaryConditions: Could not setup numerical thresholds
-5567- type_latticepoint_update: Could not generate lattice points
-5566- xtb_calculator_singlepoint: Electronic structure method terminated
-5565- scf: Setup of Coulomb evaluator failed
-5564- type_coulomb_setupBoundaryConditions: Could not setup numerical thresholds
-5563- type_latticepoint_update: Could not generate lattice points
-5562- xtb_calculator_singlepoint: Electronic structure method terminated
-5561- scf: Setup of Coulomb evaluator failed
-5560- type_coulomb_setupBoundaryConditions: Could not setup numerical thresholds
-5559- type_latticepoint_update: Could not generate lattice points
-5558- xtb_calculator_singlepoint: Electronic structure method terminated
-5557- scf: Setup of Coulomb evaluator failed
-5556- type_coulomb_setupBoundaryConditions: Could not setup numerical thresholds
-5555- type_latticepoint_update: Could not generate lattice points
-5554- xtb_calculator_singlepoint: Electronic structure method terminated
-5553- scf: Setup of Coulomb evaluator failed
-5552- type_coulomb_setupBoundaryConditions: Could not setup numerical thresholds
-5551- type_latticepoint_update: Could not generate lattice points
-5550- xtb_calculator_singlepoint: Electronic structure method terminated
-5549- scf: Setup of Coulomb evaluator failed
-5548- type_coulomb_setupBoundaryConditions: Could not setup numerical thresholds
-5547- type_latticepoint_update: Could not generate lattice points
-5546- xtb_calculator_singlepoint: Electronic structure method terminated
-5545- scf: Setup of Coulomb evaluator failed
-5544- type_coulomb_setupBoundaryConditions: Could not setup numerical thresholds
-5543- type_latticepoint_update: Could not generate lattice points
-5542- xtb_calculator_singlepoint: Electronic structure method terminated
-5541- scf: Setup of Coulomb evaluator failed
-5540- type_coulomb_setupBoundaryConditions: Could not setup numerical thresholds
-5539- type_latticepoint_update: Could not generate lattice points
-5538- xtb_calculator_singlepoint: Electronic structure method terminated
-5537- scf: Setup of Coulomb evaluator failed
-5536- type_coulomb_setupBoundaryConditions: Could not setup numerical thresholds
-5535- type_latticepoint_update: Could not generate lattice points
-5534- xtb_calculator_singlepoint: Electronic structure method terminated
-5533- scf: Setup of Coulomb evaluator failed
-5532- type_coulomb_setupBoundaryConditions: Could not setup numerical thresholds
-5531- type_latticepoint_update: Could not generate lattice points
-5530- xtb_calculator_singlepoint: Electronic structure method terminated
-5529- scf: Setup of Coulomb evaluator failed
-5528- type_coulomb_setupBoundaryConditions: Could not setup numerical thresholds
-5527- type_latticepoint_update: Could not generate lattice points
-5526- xtb_calculator_singlepoint: Electronic structure method terminated
-5525- scf: Setup of Coulomb evaluator failed
-5524- type_coulomb_setupBoundaryConditions: Could not setup numerical thresholds
-5523- type_latticepoint_update: Could not generate lattice points
-5522- xtb_calculator_singlepoint: Electronic structure method terminated
-5521- scf: Setup of Coulomb evaluator failed
-5520- type_coulomb_setupBoundaryConditions: Could not setup numerical thresholds
-5519- type_latticepoint_update: Could not generate lattice points
-5518- xtb_calculator_singlepoint: Electronic structure method terminated
-5517- scf: Setup of Coulomb evaluator failed
-5516- type_coulomb_setupBoundaryConditions: Could not setup numerical thresholds
-5515- type_latticepoint_update: Could not generate lattice points
-5514- xtb_calculator_singlepoint: Electronic structure method terminated
-5513- scf: Setup of Coulomb evaluator failed
-5512- type_coulomb_setupBoundaryConditions: Could not setup numerical thresholds
-5511- type_latticepoint_update: Could not generate lattice points
-5510- xtb_calculator_singlepoint: Electronic structure method terminated
-5509- scf: Setup of Coulomb evaluator failed
-5508- type_coulomb_setupBoundaryConditions: Could not setup numerical thresholds
-5507- type_latticepoint_update: Could not generate lattice points
-5506- xtb_calculator_singlepoint: Electronic structure method terminated
-5505- scf: Setup of Coulomb evaluator failed
-5504- type_coulomb_setupBoundaryConditions: Could not setup numerical thresholds
-5503- type_latticepoint_update: Could not generate lattice points
-5502- xtb_calculator_singlepoint: Electronic structure method terminated
-5501- scf: Setup of Coulomb evaluator failed
-5500- type_coulomb_setupBoundaryConditions: Could not setup numerical thresholds
-5499- type_latticepoint_update: Could not generate lattice points
-5498- xtb_calculator_singlepoint: Electronic structure method terminated
-5497- scf: Setup of Coulomb evaluator failed
-5496- type_coulomb_setupBoundaryConditions: Could not setup numerical thresholds
-5495- type_latticepoint_update: Could not generate lattice points
-5494- xtb_calculator_singlepoint: Electronic structure method terminated
-5493- scf: Setup of Coulomb evaluator failed
-5492- type_coulomb_setupBoundaryConditions: Could not setup numerical thresholds
-5491- type_latticepoint_update: Could not generate lattice points
-5490- xtb_calculator_singlepoint: Electronic structure method terminated
-5489- scf: Setup of Coulomb evaluator failed
-5488- type_coulomb_setupBoundaryConditions: Could not setup numerical thresholds
-5487- type_latticepoint_update: Could not generate lattice points
-5486- xtb_calculator_singlepoint: Electronic structure method terminated
-5485- scf: Setup of Coulomb evaluator failed
-5484- type_coulomb_setupBoundaryConditions: Could not setup numerical thresholds
-5483- type_latticepoint_update: Could not generate lattice points
-5482- xtb_calculator_singlepoint: Electronic structure method terminated
-5481- scf: Setup of Coulomb evaluator failed
-5480- type_coulomb_setupBoundaryConditions: Could not setup numerical thresholds
-5479- type_latticepoint_update: Could not generate lattice points
-5478- xtb_calculator_singlepoint: Electronic structure method terminated
-5477- scf: Setup of Coulomb evaluator failed
-5476- type_coulomb_setupBoundaryConditions: Could not setup numerical thresholds
-5475- type_latticepoint_update: Could not generate lattice points
-5474- xtb_calculator_singlepoint: Electronic structure method terminated
-5473- scf: Setup of Coulomb evaluator failed
-5472- type_coulomb_setupBoundaryConditions: Could not setup numerical thresholds
-5471- type_latticepoint_update: Could not generate lattice points
-5470- xtb_calculator_singlepoint: Electronic structure method terminated
-5469- scf: Setup of Coulomb evaluator failed
-5468- type_coulomb_setupBoundaryConditions: Could not setup numerical thresholds
-5467- type_latticepoint_update: Could not generate lattice points
-5466- xtb_calculator_singlepoint: Electronic structure method terminated
-5465- scf: Setup of Coulomb evaluator failed
-5464- type_coulomb_setupBoundaryConditions: Could not setup numerical thresholds
-5463- type_latticepoint_update: Could not generate lattice points
-5462- xtb_calculator_singlepoint: Electronic structure method terminated
-5461- scf: Setup of Coulomb evaluator failed
-5460- type_coulomb_setupBoundaryConditions: Could not setup numerical thresholds
-5459- type_latticepoint_update: Could not generate lattice points
-5458- xtb_calculator_singlepoint: Electronic structure method terminated
-5457- scf: Setup of Coulomb evaluator failed
-5456- type_coulomb_setupBoundaryConditions: Could not setup numerical thresholds
-5455- type_latticepoint_update: Could not generate lattice points
-5454- xtb_calculator_singlepoint: Electronic structure method terminated
-5453- scf: Setup of Coulomb evaluator failed
-5452- type_coulomb_setupBoundaryConditions: Could not setup numerical thresholds
-5451- type_latticepoint_update: Could not generate lattice points
-5450- xtb_calculator_singlepoint: Electronic structure method terminated
-5449- scf: Setup of Coulomb evaluator failed
-5448- type_coulomb_setupBoundaryConditions: Could not setup numerical thresholds
-5447- type_latticepoint_update: Could not generate lattice points
-5446- xtb_calculator_singlepoint: Electronic structure method terminated
-5445- scf: Setup of Coulomb evaluator failed
-5444- type_coulomb_setupBoundaryConditions: Could not setup numerical thresholds
-5443- type_latticepoint_update: Could not generate lattice points
-5442- xtb_calculator_singlepoint: Electronic structure method terminated
-5441- scf: Setup of Coulomb evaluator failed
-5440- type_coulomb_setupBoundaryConditions: Could not setup numerical thresholds
-5439- type_latticepoint_update: Could not generate lattice points
-5438- xtb_calculator_singlepoint: Electronic structure method terminated
-5437- scf: Setup of Coulomb evaluator failed
-5436- type_coulomb_setupBoundaryConditions: Could not setup numerical thresholds
-5435- type_latticepoint_update: Could not generate lattice points
-5434- xtb_calculator_singlepoint: Electronic structure method terminated
-5433- scf: Setup of Coulomb evaluator failed
-5432- type_coulomb_setupBoundaryConditions: Could not setup numerical thresholds
-5431- type_latticepoint_update: Could not generate lattice points
-5430- xtb_calculator_singlepoint: Electronic structure method terminated
-5429- scf: Setup of Coulomb evaluator failed
-5428- type_coulomb_setupBoundaryConditions: Could not setup numerical thresholds
-5427- type_latticepoint_update: Could not generate lattice points
-5426- xtb_calculator_singlepoint: Electronic structure method terminated
-5425- scf: Setup of Coulomb evaluator failed
-5424- type_coulomb_setupBoundaryConditions: Could not setup numerical thresholds
-5423- type_latticepoint_update: Could not generate lattice points
-5422- xtb_calculator_singlepoint: Electronic structure method terminated
-5421- scf: Setup of Coulomb evaluator failed
-5420- type_coulomb_setupBoundaryConditions: Could not setup numerical thresholds
-5419- type_latticepoint_update: Could not generate lattice points
-5418- xtb_calculator_singlepoint: Electronic structure method terminated
-5417- scf: Setup of Coulomb evaluator failed
-5416- type_coulomb_setupBoundaryConditions: Could not setup numerical thresholds
-5415- type_latticepoint_update: Could not generate lattice points
-5414- xtb_calculator_singlepoint: Electronic structure method terminated
-5413- scf: Setup of Coulomb evaluator failed
-5412- type_coulomb_setupBoundaryConditions: Could not setup numerical thresholds
-5411- type_latticepoint_update: Could not generate lattice points
-5410- xtb_calculator_singlepoint: Electronic structure method terminated
-5409- scf: Setup of Coulomb evaluator failed
-5408- type_coulomb_setupBoundaryConditions: Could not setup numerical thresholds
-5407- type_latticepoint_update: Could not generate lattice points
-5406- xtb_calculator_singlepoint: Electronic structure method terminated
-5405- scf: Setup of Coulomb evaluator failed
-5404- type_coulomb_setupBoundaryConditions: Could not setup numerical thresholds
-5403- type_latticepoint_update: Could not generate lattice points
-5402- xtb_calculator_singlepoint: Electronic structure method terminated
-5401- scf: Setup of Coulomb evaluator failed
-5400- type_coulomb_setupBoundaryConditions: Could not setup numerical thresholds
-5399- type_latticepoint_update: Could not generate lattice points
-5398- xtb_calculator_singlepoint: Electronic structure method terminated
-5397- scf: Setup of Coulomb evaluator failed
-5396- type_coulomb_setupBoundaryConditions: Could not setup numerical thresholds
-5395- type_latticepoint_update: Could not generate lattice points
-5394- xtb_calculator_singlepoint: Electronic structure method terminated
-5393- scf: Setup of Coulomb evaluator failed
-5392- type_coulomb_setupBoundaryConditions: Could not setup numerical thresholds
-5391- type_latticepoint_update: Could not generate lattice points
-5390- xtb_calculator_singlepoint: Electronic structure method terminated
-5389- scf: Setup of Coulomb evaluator failed
-5388- type_coulomb_setupBoundaryConditions: Could not setup numerical thresholds
-5387- type_latticepoint_update: Could not generate lattice points
-5386- xtb_calculator_singlepoint: Electronic structure method terminated
-5385- scf: Setup of Coulomb evaluator failed
-5384- type_coulomb_setupBoundaryConditions: Could not setup numerical thresholds
-5383- type_latticepoint_update: Could not generate lattice points
-5382- xtb_calculator_singlepoint: Electronic structure method terminated
-5381- scf: Setup of Coulomb evaluator failed
-5380- type_coulomb_setupBoundaryConditions: Could not setup numerical thresholds
-5379- type_latticepoint_update: Could not generate lattice points
-5378- xtb_calculator_singlepoint: Electronic structure method terminated
-5377- scf: Setup of Coulomb evaluator failed
-5376- type_coulomb_setupBoundaryConditions: Could not setup numerical thresholds
-5375- type_latticepoint_update: Could not generate lattice points
-5374- xtb_calculator_singlepoint: Electronic structure method terminated
-5373- scf: Setup of Coulomb evaluator failed
-5372- type_coulomb_setupBoundaryConditions: Could not setup numerical thresholds
-5371- type_latticepoint_update: Could not generate lattice points
-5370- xtb_calculator_singlepoint: Electronic structure method terminated
-5369- scf: Setup of Coulomb evaluator failed
-5368- type_coulomb_setupBoundaryConditions: Could not setup numerical thresholds
-5367- type_latticepoint_update: Could not generate lattice points
-5366- xtb_calculator_singlepoint: Electronic structure method terminated
-5365- scf: Setup of Coulomb evaluator failed
-5364- type_coulomb_setupBoundaryConditions: Could not setup numerical thresholds
-5363- type_latticepoint_update: Could not generate lattice points
-5362- xtb_calculator_singlepoint: Electronic structure method terminated
-5361- scf: Setup of Coulomb evaluator failed
-5360- type_coulomb_setupBoundaryConditions: Could not setup numerical thresholds
-5359- type_latticepoint_update: Could not generate lattice points
-5358- xtb_calculator_singlepoint: Electronic structure method terminated
-5357- scf: Setup of Coulomb evaluator failed
-5356- type_coulomb_setupBoundaryConditions: Could not setup numerical thresholds
-5355- type_latticepoint_update: Could not generate lattice points
-5354- xtb_calculator_singlepoint: Electronic structure method terminated
-5353- scf: Setup of Coulomb evaluator failed
-5352- type_coulomb_setupBoundaryConditions: Could not setup numerical thresholds
-5351- type_latticepoint_update: Could not generate lattice points
-5350- xtb_calculator_singlepoint: Electronic structure method terminated
-5349- scf: Setup of Coulomb evaluator failed
-5348- type_coulomb_setupBoundaryConditions: Could not setup numerical thresholds
-5347- type_latticepoint_update: Could not generate lattice points
-5346- xtb_calculator_singlepoint: Electronic structure method terminated
-5345- scf: Setup of Coulomb evaluator failed
-5344- type_coulomb_setupBoundaryConditions: Could not setup numerical thresholds
-5343- type_latticepoint_update: Could not generate lattice points
-5342- xtb_calculator_singlepoint: Electronic structure method terminated
-5341- scf: Setup of Coulomb evaluator failed
-5340- type_coulomb_setupBoundaryConditions: Could not setup numerical thresholds
-5339- type_latticepoint_update: Could not generate lattice points
-5338- xtb_calculator_singlepoint: Electronic structure method terminated
-5337- scf: Setup of Coulomb evaluator failed
-5336- type_coulomb_setupBoundaryConditions: Could not setup numerical thresholds
-5335- type_latticepoint_update: Could not generate lattice points
-5334- xtb_calculator_singlepoint: Electronic structure method terminated
-5333- scf: Setup of Coulomb evaluator failed
-5332- type_coulomb_setupBoundaryConditions: Could not setup numerical thresholds
-5331- type_latticepoint_update: Could not generate lattice points
-5330- xtb_calculator_singlepoint: Electronic structure method terminated
-5329- scf: Setup of Coulomb evaluator failed
-5328- type_coulomb_setupBoundaryConditions: Could not setup numerical thresholds
-5327- type_latticepoint_update: Could not generate lattice points
-5326- xtb_calculator_singlepoint: Electronic structure method terminated
-5325- scf: Setup of Coulomb evaluator failed
-5324- type_coulomb_setupBoundaryConditions: Could not setup numerical thresholds
-5323- type_latticepoint_update: Could not generate lattice points
-5322- xtb_calculator_singlepoint: Electronic structure method terminated
-5321- scf: Setup of Coulomb evaluator failed
-5320- type_coulomb_setupBoundaryConditions: Could not setup numerical thresholds
-5319- type_latticepoint_update: Could not generate lattice points
-5318- xtb_calculator_singlepoint: Electronic structure method terminated
-5317- scf: Setup of Coulomb evaluator failed
-5316- type_coulomb_setupBoundaryConditions: Could not setup numerical thresholds
-5315- type_latticepoint_update: Could not generate lattice points
-5314- xtb_calculator_singlepoint: Electronic structure method terminated
-5313- scf: Setup of Coulomb evaluator failed
-5312- type_coulomb_setupBoundaryConditions: Could not setup numerical thresholds
-5311- type_latticepoint_update: Could not generate lattice points
-5310- xtb_calculator_singlepoint: Electronic structure method terminated
-5309- scf: Setup of Coulomb evaluator failed
-5308- type_coulomb_setupBoundaryConditions: Could not setup numerical thresholds
-5307- type_latticepoint_update: Could not generate lattice points
-5306- xtb_calculator_singlepoint: Electronic structure method terminated
-5305- scf: Setup of Coulomb evaluator failed
-5304- type_coulomb_setupBoundaryConditions: Could not setup numerical thresholds
-5303- type_latticepoint_update: Could not generate lattice points
-5302- xtb_calculator_singlepoint: Electronic structure method terminated
-5301- scf: Setup of Coulomb evaluator failed
-5300- type_coulomb_setupBoundaryConditions: Could not setup numerical thresholds
-5299- type_latticepoint_update: Could not generate lattice points
-5298- xtb_calculator_singlepoint: Electronic structure method terminated
-5297- scf: Setup of Coulomb evaluator failed
-5296- type_coulomb_setupBoundaryConditions: Could not setup numerical thresholds
-5295- type_latticepoint_update: Could not generate lattice points
-5294- xtb_calculator_singlepoint: Electronic structure method terminated
-5293- scf: Setup of Coulomb evaluator failed
-5292- type_coulomb_setupBoundaryConditions: Could not setup numerical thresholds
-5291- type_latticepoint_update: Could not generate lattice points
-5290- xtb_calculator_singlepoint: Electronic structure method terminated
-5289- scf: Setup of Coulomb evaluator failed
-5288- type_coulomb_setupBoundaryConditions: Could not setup numerical thresholds
-5287- type_latticepoint_update: Could not generate lattice points
-5286- xtb_calculator_singlepoint: Electronic structure method terminated
-5285- scf: Setup of Coulomb evaluator failed
-5284- type_coulomb_setupBoundaryConditions: Could not setup numerical thresholds
-5283- type_latticepoint_update: Could not generate lattice points
-5282- xtb_calculator_singlepoint: Electronic structure method terminated
-5281- scf: Setup of Coulomb evaluator failed
-5280- type_coulomb_setupBoundaryConditions: Could not setup numerical thresholds
-5279- type_latticepoint_update: Could not generate lattice points
-5278- xtb_calculator_singlepoint: Electronic structure method terminated
-5277- scf: Setup of Coulomb evaluator failed
-5276- type_coulomb_setupBoundaryConditions: Could not setup numerical thresholds
-5275- type_latticepoint_update: Could not generate lattice points
-5274- xtb_calculator_singlepoint: Electronic structure method terminated
-5273- scf: Setup of Coulomb evaluator failed
-5272- type_coulomb_setupBoundaryConditions: Could not setup numerical thresholds
-5271- type_latticepoint_update: Could not generate lattice points
-5270- xtb_calculator_singlepoint: Electronic structure method terminated
-5269- scf: Setup of Coulomb evaluator failed
-5268- type_coulomb_setupBoundaryConditions: Could not setup numerical thresholds
-5267- type_latticepoint_update: Could not generate lattice points
-5266- xtb_calculator_singlepoint: Electronic structure method terminated
-5265- scf: Setup of Coulomb evaluator failed
-5264- type_coulomb_setupBoundaryConditions: Could not setup numerical thresholds
-5263- type_latticepoint_update: Could not generate lattice points
-5262- xtb_calculator_singlepoint: Electronic structure method terminated
-5261- scf: Setup of Coulomb evaluator failed
-5260- type_coulomb_setupBoundaryConditions: Could not setup numerical thresholds
-5259- type_latticepoint_update: Could not generate lattice points
-5258- xtb_calculator_singlepoint: Electronic structure method terminated
-5257- scf: Setup of Coulomb evaluator failed
-5256- type_coulomb_setupBoundaryConditions: Could not setup numerical thresholds
-5255- type_latticepoint_update: Could not generate lattice points
-5254- xtb_calculator_singlepoint: Electronic structure method terminated
-5253- scf: Setup of Coulomb evaluator failed
-5252- type_coulomb_setupBoundaryConditions: Could not setup numerical thresholds
-5251- type_latticepoint_update: Could not generate lattice points
-5250- xtb_calculator_singlepoint: Electronic structure method terminated
-5249- scf: Setup of Coulomb evaluator failed
-5248- type_coulomb_setupBoundaryConditions: Could not setup numerical thresholds
-5247- type_latticepoint_update: Could not generate lattice points
-5246- xtb_calculator_singlepoint: Electronic structure method terminated
-5245- scf: Setup of Coulomb evaluator failed
-5244- type_coulomb_setupBoundaryConditions: Could not setup numerical thresholds
-5243- type_latticepoint_update: Could not generate lattice points
-5242- xtb_calculator_singlepoint: Electronic structure method terminated
-5241- scf: Setup of Coulomb evaluator failed
-5240- type_coulomb_setupBoundaryConditions: Could not setup numerical thresholds
-5239- type_latticepoint_update: Could not generate lattice points
-5238- xtb_calculator_singlepoint: Electronic structure method terminated
-5237- scf: Setup of Coulomb evaluator failed
-5236- type_coulomb_setupBoundaryConditions: Could not setup numerical thresholds
-5235- type_latticepoint_update: Could not generate lattice points
-5234- xtb_calculator_singlepoint: Electronic structure method terminated
-5233- scf: Setup of Coulomb evaluator failed
-5232- type_coulomb_setupBoundaryConditions: Could not setup numerical thresholds
-5231- type_latticepoint_update: Could not generate lattice points
-5230- xtb_calculator_singlepoint: Electronic structure method terminated
-5229- scf: Setup of Coulomb evaluator failed
-5228- type_coulomb_setupBoundaryConditions: Could not setup numerical thresholds
-5227- type_latticepoint_update: Could not generate lattice points
-5226- xtb_calculator_singlepoint: Electronic structure method terminated
-5225- scf: Setup of Coulomb evaluator failed
-5224- type_coulomb_setupBoundaryConditions: Could not setup numerical thresholds
-5223- type_latticepoint_update: Could not generate lattice points
-5222- xtb_calculator_singlepoint: Electronic structure method terminated
-5221- scf: Setup of Coulomb evaluator failed
-5220- type_coulomb_setupBoundaryConditions: Could not setup numerical thresholds
-5219- type_latticepoint_update: Could not generate lattice points
-5218- xtb_calculator_singlepoint: Electronic structure method terminated
-5217- scf: Setup of Coulomb evaluator failed
-5216- type_coulomb_setupBoundaryConditions: Could not setup numerical thresholds
-5215- type_latticepoint_update: Could not generate lattice points
-5214- xtb_calculator_singlepoint: Electronic structure method terminated
-5213- scf: Setup of Coulomb evaluator failed
-5212- type_coulomb_setupBoundaryConditions: Could not setup numerical thresholds
-5211- type_latticepoint_update: Could not generate lattice points
-5210- xtb_calculator_singlepoint: Electronic structure method terminated
-5209- scf: Setup of Coulomb evaluator failed
-5208- type_coulomb_setupBoundaryConditions: Could not setup numerical thresholds
-5207- type_latticepoint_update: Could not generate lattice points
-5206- xtb_calculator_singlepoint: Electronic structure method terminated
-5205- scf: Setup of Coulomb evaluator failed
-5204- type_coulomb_setupBoundaryConditions: Could not setup numerical thresholds
-5203- type_latticepoint_update: Could not generate lattice points
-5202- xtb_calculator_singlepoint: Electronic structure method terminated
-5201- scf: Setup of Coulomb evaluator failed
-5200- type_coulomb_setupBoundaryConditions: Could not setup numerical thresholds
-5199- type_latticepoint_update: Could not generate lattice points
-5198- xtb_calculator_singlepoint: Electronic structure method terminated
-5197- scf: Setup of Coulomb evaluator failed
-5196- type_coulomb_setupBoundaryConditions: Could not setup numerical thresholds
-5195- type_latticepoint_update: Could not generate lattice points
-5194- xtb_calculator_singlepoint: Electronic structure method terminated
-5193- scf: Setup of Coulomb evaluator failed
-5192- type_coulomb_setupBoundaryConditions: Could not setup numerical thresholds
-5191- type_latticepoint_update: Could not generate lattice points
-5190- xtb_calculator_singlepoint: Electronic structure method terminated
-5189- scf: Setup of Coulomb evaluator failed
-5188- type_coulomb_setupBoundaryConditions: Could not setup numerical thresholds
-5187- type_latticepoint_update: Could not generate lattice points
-5186- xtb_calculator_singlepoint: Electronic structure method terminated
-5185- scf: Setup of Coulomb evaluator failed
-5184- type_coulomb_setupBoundaryConditions: Could not setup numerical thresholds
-5183- type_latticepoint_update: Could not generate lattice points
-5182- xtb_calculator_singlepoint: Electronic structure method terminated
-5181- scf: Setup of Coulomb evaluator failed
-5180- type_coulomb_setupBoundaryConditions: Could not setup numerical thresholds
-5179- type_latticepoint_update: Could not generate lattice points
-5178- xtb_calculator_singlepoint: Electronic structure method terminated
-5177- scf: Setup of Coulomb evaluator failed
-5176- type_coulomb_setupBoundaryConditions: Could not setup numerical thresholds
-5175- type_latticepoint_update: Could not generate lattice points
-5174- xtb_calculator_singlepoint: Electronic structure method terminated
-5173- scf: Setup of Coulomb evaluator failed
-5172- type_coulomb_setupBoundaryConditions: Could not setup numerical thresholds
-5171- type_latticepoint_update: Could not generate lattice points
-5170- xtb_calculator_singlepoint: Electronic structure method terminated
-5169- scf: Setup of Coulomb evaluator failed
-5168- type_coulomb_setupBoundaryConditions: Could not setup numerical thresholds
-5167- type_latticepoint_update: Could not generate lattice points
-5166- xtb_calculator_singlepoint: Electronic structure method terminated
-5165- scf: Setup of Coulomb evaluator failed
-5164- type_coulomb_setupBoundaryConditions: Could not setup numerical thresholds
-5163- type_latticepoint_update: Could not generate lattice points
-5162- xtb_calculator_singlepoint: Electronic structure method terminated
-5161- scf: Setup of Coulomb evaluator failed
-5160- type_coulomb_setupBoundaryConditions: Could not setup numerical thresholds
-5159- type_latticepoint_update: Could not generate lattice points
-5158- xtb_calculator_singlepoint: Electronic structure method terminated
-5157- scf: Setup of Coulomb evaluator failed
-5156- type_coulomb_setupBoundaryConditions: Could not setup numerical thresholds
-5155- type_latticepoint_update: Could not generate lattice points
-5154- xtb_calculator_singlepoint: Electronic structure method terminated
-5153- scf: Setup of Coulomb evaluator failed
-5152- type_coulomb_setupBoundaryConditions: Could not setup numerical thresholds
-5151- type_latticepoint_update: Could not generate lattice points
-5150- xtb_calculator_singlepoint: Electronic structure method terminated
-5149- scf: Setup of Coulomb evaluator failed
-5148- type_coulomb_setupBoundaryConditions: Could not setup numerical thresholds
-5147- type_latticepoint_update: Could not generate lattice points
-5146- xtb_calculator_singlepoint: Electronic structure method terminated
-5145- scf: Setup of Coulomb evaluator failed
-5144- type_coulomb_setupBoundaryConditions: Could not setup numerical thresholds
-5143- type_latticepoint_update: Could not generate lattice points
-5142- xtb_calculator_singlepoint: Electronic structure method terminated
-5141- scf: Setup of Coulomb evaluator failed
-5140- type_coulomb_setupBoundaryConditions: Could not setup numerical thresholds
-5139- type_latticepoint_update: Could not generate lattice points
-5138- xtb_calculator_singlepoint: Electronic structure method terminated
-5137- scf: Setup of Coulomb evaluator failed
-5136- type_coulomb_setupBoundaryConditions: Could not setup numerical thresholds
-5135- type_latticepoint_update: Could not generate lattice points
-5134- xtb_calculator_singlepoint: Electronic structure method terminated
-5133- scf: Setup of Coulomb evaluator failed
-5132- type_coulomb_setupBoundaryConditions: Could not setup numerical thresholds
-5131- type_latticepoint_update: Could not generate lattice points
-5130- xtb_calculator_singlepoint: Electronic structure method terminated
-5129- scf: Setup of Coulomb evaluator failed
-5128- type_coulomb_setupBoundaryConditions: Could not setup numerical thresholds
-5127- type_latticepoint_update: Could not generate lattice points
-5126- xtb_calculator_singlepoint: Electronic structure method terminated
-5125- scf: Setup of Coulomb evaluator failed
-5124- type_coulomb_setupBoundaryConditions: Could not setup numerical thresholds
-5123- type_latticepoint_update: Could not generate lattice points
-5122- xtb_calculator_singlepoint: Electronic structure method terminated
-5121- scf: Setup of Coulomb evaluator failed
-5120- type_coulomb_setupBoundaryConditions: Could not setup numerical thresholds
-5119- type_latticepoint_update: Could not generate lattice points
-5118- xtb_calculator_singlepoint: Electronic structure method terminated
-5117- scf: Setup of Coulomb evaluator failed
-5116- type_coulomb_setupBoundaryConditions: Could not setup numerical thresholds
-5115- type_latticepoint_update: Could not generate lattice points
-5114- xtb_calculator_singlepoint: Electronic structure method terminated
-5113- scf: Setup of Coulomb evaluator failed
-5112- type_coulomb_setupBoundaryConditions: Could not setup numerical thresholds
-5111- type_latticepoint_update: Could not generate lattice points
-5110- xtb_calculator_singlepoint: Electronic structure method terminated
-5109- scf: Setup of Coulomb evaluator failed
-5108- type_coulomb_setupBoundaryConditions: Could not setup numerical thresholds
-5107- type_latticepoint_update: Could not generate lattice points
-5106- xtb_calculator_singlepoint: Electronic structure method terminated
-5105- scf: Setup of Coulomb evaluator failed
-5104- type_coulomb_setupBoundaryConditions: Could not setup numerical thresholds
-5103- type_latticepoint_update: Could not generate lattice points
-5102- xtb_calculator_singlepoint: Electronic structure method terminated
-5101- scf: Setup of Coulomb evaluator failed
-5100- type_coulomb_setupBoundaryConditions: Could not setup numerical thresholds
-5099- type_latticepoint_update: Could not generate lattice points
-5098- xtb_calculator_singlepoint: Electronic structure method terminated
-5097- scf: Setup of Coulomb evaluator failed
-5096- type_coulomb_setupBoundaryConditions: Could not setup numerical thresholds
-5095- type_latticepoint_update: Could not generate lattice points
-5094- xtb_calculator_singlepoint: Electronic structure method terminated
-5093- scf: Setup of Coulomb evaluator failed
-5092- type_coulomb_setupBoundaryConditions: Could not setup numerical thresholds
-5091- type_latticepoint_update: Could not generate lattice points
-5090- xtb_calculator_singlepoint: Electronic structure method terminated
-5089- scf: Setup of Coulomb evaluator failed
-5088- type_coulomb_setupBoundaryConditions: Could not setup numerical thresholds
-5087- type_latticepoint_update: Could not generate lattice points
-5086- xtb_calculator_singlepoint: Electronic structure method terminated
-5085- scf: Setup of Coulomb evaluator failed
-5084- type_coulomb_setupBoundaryConditions: Could not setup numerical thresholds
-5083- type_latticepoint_update: Could not generate lattice points
-5082- xtb_calculator_singlepoint: Electronic structure method terminated
-5081- scf: Setup of Coulomb evaluator failed
-5080- type_coulomb_setupBoundaryConditions: Could not setup numerical thresholds
-5079- type_latticepoint_update: Could not generate lattice points
-5078- xtb_calculator_singlepoint: Electronic structure method terminated
-5077- scf: Setup of Coulomb evaluator failed
-5076- type_coulomb_setupBoundaryConditions: Could not setup numerical thresholds
-5075- type_latticepoint_update: Could not generate lattice points
-5074- xtb_calculator_singlepoint: Electronic structure method terminated
-5073- scf: Setup of Coulomb evaluator failed
-5072- type_coulomb_setupBoundaryConditions: Could not setup numerical thresholds
-5071- type_latticepoint_update: Could not generate lattice points
-5070- xtb_calculator_singlepoint: Electronic structure method terminated
-5069- scf: Setup of Coulomb evaluator failed
-5068- type_coulomb_setupBoundaryConditions: Could not setup numerical thresholds
-5067- type_latticepoint_update: Could not generate lattice points
-5066- xtb_calculator_singlepoint: Electronic structure method terminated
-5065- scf: Setup of Coulomb evaluator failed
-5064- type_coulomb_setupBoundaryConditions: Could not setup numerical thresholds
-5063- type_latticepoint_update: Could not generate lattice points
-5062- xtb_calculator_singlepoint: Electronic structure method terminated
-5061- scf: Setup of Coulomb evaluator failed
-5060- type_coulomb_setupBoundaryConditions: Could not setup numerical thresholds
-5059- type_latticepoint_update: Could not generate lattice points
-5058- xtb_calculator_singlepoint: Electronic structure method terminated
-5057- scf: Setup of Coulomb evaluator failed
-5056- type_coulomb_setupBoundaryConditions: Could not setup numerical thresholds
-5055- type_latticepoint_update: Could not generate lattice points
-5054- xtb_calculator_singlepoint: Electronic structure method terminated
-5053- scf: Setup of Coulomb evaluator failed
-5052- type_coulomb_setupBoundaryConditions: Could not setup numerical thresholds
-5051- type_latticepoint_update: Could not generate lattice points
-5050- xtb_calculator_singlepoint: Electronic structure method terminated
-5049- scf: Setup of Coulomb evaluator failed
-5048- type_coulomb_setupBoundaryConditions: Could not setup numerical thresholds
-5047- type_latticepoint_update: Could not generate lattice points
-5046- xtb_calculator_singlepoint: Electronic structure method terminated
-5045- scf: Setup of Coulomb evaluator failed
-5044- type_coulomb_setupBoundaryConditions: Could not setup numerical thresholds
-5043- type_latticepoint_update: Could not generate lattice points
-5042- xtb_calculator_singlepoint: Electronic structure method terminated
-5041- scf: Setup of Coulomb evaluator failed
-5040- type_coulomb_setupBoundaryConditions: Could not setup numerical thresholds
-5039- type_latticepoint_update: Could not generate lattice points
-5038- xtb_calculator_singlepoint: Electronic structure method terminated
-5037- scf: Setup of Coulomb evaluator failed
-5036- type_coulomb_setupBoundaryConditions: Could not setup numerical thresholds
-5035- type_latticepoint_update: Could not generate lattice points
-5034- xtb_calculator_singlepoint: Electronic structure method terminated
-5033- scf: Setup of Coulomb evaluator failed
-5032- type_coulomb_setupBoundaryConditions: Could not setup numerical thresholds
-5031- type_latticepoint_update: Could not generate lattice points
-5030- xtb_calculator_singlepoint: Electronic structure method terminated
-5029- scf: Setup of Coulomb evaluator failed
-5028- type_coulomb_setupBoundaryConditions: Could not setup numerical thresholds
-5027- type_latticepoint_update: Could not generate lattice points
-5026- xtb_calculator_singlepoint: Electronic structure method terminated
-5025- scf: Setup of Coulomb evaluator failed
-5024- type_coulomb_setupBoundaryConditions: Could not setup numerical thresholds
-5023- type_latticepoint_update: Could not generate lattice points
-5022- xtb_calculator_singlepoint: Electronic structure method terminated
-5021- scf: Setup of Coulomb evaluator failed
-5020- type_coulomb_setupBoundaryConditions: Could not setup numerical thresholds
-5019- type_latticepoint_update: Could not generate lattice points
-5018- xtb_calculator_singlepoint: Electronic structure method terminated
-5017- scf: Setup of Coulomb evaluator failed
-5016- type_coulomb_setupBoundaryConditions: Could not setup numerical thresholds
-5015- type_latticepoint_update: Could not generate lattice points
-5014- xtb_calculator_singlepoint: Electronic structure method terminated
-5013- scf: Setup of Coulomb evaluator failed
-5012- type_coulomb_setupBoundaryConditions: Could not setup numerical thresholds
-5011- type_latticepoint_update: Could not generate lattice points
-5010- xtb_calculator_singlepoint: Electronic structure method terminated
-5009- scf: Setup of Coulomb evaluator failed
-5008- type_coulomb_setupBoundaryConditions: Could not setup numerical thresholds
-5007- type_latticepoint_update: Could not generate lattice points
-5006- xtb_calculator_singlepoint: Electronic structure method terminated
-5005- scf: Setup of Coulomb evaluator failed
-5004- type_coulomb_setupBoundaryConditions: Could not setup numerical thresholds
-5003- type_latticepoint_update: Could not generate lattice points
-5002- xtb_calculator_singlepoint: Electronic structure method terminated
-5001- scf: Setup of Coulomb evaluator failed
-5000- type_coulomb_setupBoundaryConditions: Could not setup numerical thresholds
-4999- type_latticepoint_update: Could not generate lattice points
-4998- xtb_calculator_singlepoint: Electronic structure method terminated
-4997- scf: Setup of Coulomb evaluator failed
-4996- type_coulomb_setupBoundaryConditions: Could not setup numerical thresholds
-4995- type_latticepoint_update: Could not generate lattice points
-4994- xtb_calculator_singlepoint: Electronic structure method terminated
-4993- scf: Setup of Coulomb evaluator failed
-4992- type_coulomb_setupBoundaryConditions: Could not setup numerical thresholds
-4991- type_latticepoint_update: Could not generate lattice points
-4990- xtb_calculator_singlepoint: Electronic structure method terminated
-4989- scf: Setup of Coulomb evaluator failed
-4988- type_coulomb_setupBoundaryConditions: Could not setup numerical thresholds
-4987- type_latticepoint_update: Could not generate lattice points
-4986- xtb_calculator_singlepoint: Electronic structure method terminated
-4985- scf: Setup of Coulomb evaluator failed
-4984- type_coulomb_setupBoundaryConditions: Could not setup numerical thresholds
-4983- type_latticepoint_update: Could not generate lattice points
-4982- xtb_calculator_singlepoint: Electronic structure method terminated
-4981- scf: Setup of Coulomb evaluator failed
-4980- type_coulomb_setupBoundaryConditions: Could not setup numerical thresholds
-4979- type_latticepoint_update: Could not generate lattice points
-4978- xtb_calculator_singlepoint: Electronic structure method terminated
-4977- scf: Setup of Coulomb evaluator failed
-4976- type_coulomb_setupBoundaryConditions: Could not setup numerical thresholds
-4975- type_latticepoint_update: Could not generate lattice points
-4974- xtb_calculator_singlepoint: Electronic structure method terminated
-4973- scf: Setup of Coulomb evaluator failed
-4972- type_coulomb_setupBoundaryConditions: Could not setup numerical thresholds
-4971- type_latticepoint_update: Could not generate lattice points
-4970- xtb_calculator_singlepoint: Electronic structure method terminated
-4969- scf: Setup of Coulomb evaluator failed
-4968- type_coulomb_setupBoundaryConditions: Could not setup numerical thresholds
-4967- type_latticepoint_update: Could not generate lattice points
-4966- xtb_calculator_singlepoint: Electronic structure method terminated
-4965- scf: Setup of Coulomb evaluator failed
-4964- type_coulomb_setupBoundaryConditions: Could not setup numerical thresholds
-4963- type_latticepoint_update: Could not generate lattice points
-4962- xtb_calculator_singlepoint: Electronic structure method terminated
-4961- scf: Setup of Coulomb evaluator failed
-4960- type_coulomb_setupBoundaryConditions: Could not setup numerical thresholds
-4959- type_latticepoint_update: Could not generate lattice points
-4958- xtb_calculator_singlepoint: Electronic structure method terminated
-4957- scf: Setup of Coulomb evaluator failed
-4956- type_coulomb_setupBoundaryConditions: Could not setup numerical thresholds
-4955- type_latticepoint_update: Could not generate lattice points
-4954- xtb_calculator_singlepoint: Electronic structure method terminated
-4953- scf: Setup of Coulomb evaluator failed
-4952- type_coulomb_setupBoundaryConditions: Could not setup numerical thresholds
-4951- type_latticepoint_update: Could not generate lattice points
-4950- xtb_calculator_singlepoint: Electronic structure method terminated
-4949- scf: Setup of Coulomb evaluator failed
-4948- type_coulomb_setupBoundaryConditions: Could not setup numerical thresholds
-4947- type_latticepoint_update: Could not generate lattice points
-4946- xtb_calculator_singlepoint: Electronic structure method terminated
-4945- scf: Setup of Coulomb evaluator failed
-4944- type_coulomb_setupBoundaryConditions: Could not setup numerical thresholds
-4943- type_latticepoint_update: Could not generate lattice points
-4942- xtb_calculator_singlepoint: Electronic structure method terminated
-4941- scf: Setup of Coulomb evaluator failed
-4940- type_coulomb_setupBoundaryConditions: Could not setup numerical thresholds
-4939- type_latticepoint_update: Could not generate lattice points
-4938- xtb_calculator_singlepoint: Electronic structure method terminated
-4937- scf: Setup of Coulomb evaluator failed
-4936- type_coulomb_setupBoundaryConditions: Could not setup numerical thresholds
-4935- type_latticepoint_update: Could not generate lattice points
-4934- xtb_calculator_singlepoint: Electronic structure method terminated
-4933- scf: Setup of Coulomb evaluator failed
-4932- type_coulomb_setupBoundaryConditions: Could not setup numerical thresholds
-4931- type_latticepoint_update: Could not generate lattice points
-4930- xtb_calculator_singlepoint: Electronic structure method terminated
-4929- scf: Setup of Coulomb evaluator failed
-4928- type_coulomb_setupBoundaryConditions: Could not setup numerical thresholds
-4927- type_latticepoint_update: Could not generate lattice points
-4926- xtb_calculator_singlepoint: Electronic structure method terminated
-4925- scf: Setup of Coulomb evaluator failed
-4924- type_coulomb_setupBoundaryConditions: Could not setup numerical thresholds
-4923- type_latticepoint_update: Could not generate lattice points
-4922- xtb_calculator_singlepoint: Electronic structure method terminated
-4921- scf: Setup of Coulomb evaluator failed
-4920- type_coulomb_setupBoundaryConditions: Could not setup numerical thresholds
-4919- type_latticepoint_update: Could not generate lattice points
-4918- xtb_calculator_singlepoint: Electronic structure method terminated
-4917- scf: Setup of Coulomb evaluator failed
-4916- type_coulomb_setupBoundaryConditions: Could not setup numerical thresholds
-4915- type_latticepoint_update: Could not generate lattice points
-4914- xtb_calculator_singlepoint: Electronic structure method terminated
-4913- scf: Setup of Coulomb evaluator failed
-4912- type_coulomb_setupBoundaryConditions: Could not setup numerical thresholds
-4911- type_latticepoint_update: Could not generate lattice points
-4910- xtb_calculator_singlepoint: Electronic structure method terminated
-4909- scf: Setup of Coulomb evaluator failed
-4908- type_coulomb_setupBoundaryConditions: Could not setup numerical thresholds
-4907- type_latticepoint_update: Could not generate lattice points
-4906- xtb_calculator_singlepoint: Electronic structure method terminated
-4905- scf: Setup of Coulomb evaluator failed
-4904- type_coulomb_setupBoundaryConditions: Could not setup numerical thresholds
-4903- type_latticepoint_update: Could not generate lattice points
-4902- xtb_calculator_singlepoint: Electronic structure method terminated
-4901- scf: Setup of Coulomb evaluator failed
-4900- type_coulomb_setupBoundaryConditions: Could not setup numerical thresholds
-4899- type_latticepoint_update: Could not generate lattice points
-4898- xtb_calculator_singlepoint: Electronic structure method terminated
-4897- scf: Setup of Coulomb evaluator failed
-4896- type_coulomb_setupBoundaryConditions: Could not setup numerical thresholds
-4895- type_latticepoint_update: Could not generate lattice points
-4894- xtb_calculator_singlepoint: Electronic structure method terminated
-4893- scf: Setup of Coulomb evaluator failed
-4892- type_coulomb_setupBoundaryConditions: Could not setup numerical thresholds
-4891- type_latticepoint_update: Could not generate lattice points
-4890- xtb_calculator_singlepoint: Electronic structure method terminated
-4889- scf: Setup of Coulomb evaluator failed
-4888- type_coulomb_setupBoundaryConditions: Could not setup numerical thresholds
-4887- type_latticepoint_update: Could not generate lattice points
-4886- xtb_calculator_singlepoint: Electronic structure method terminated
-4885- scf: Setup of Coulomb evaluator failed
-4884- type_coulomb_setupBoundaryConditions: Could not setup numerical thresholds
-4883- type_latticepoint_update: Could not generate lattice points
-4882- xtb_calculator_singlepoint: Electronic structure method terminated
-4881- scf: Setup of Coulomb evaluator failed
-4880- type_coulomb_setupBoundaryConditions: Could not setup numerical thresholds
-4879- type_latticepoint_update: Could not generate lattice points
-4878- xtb_calculator_singlepoint: Electronic structure method terminated
-4877- scf: Setup of Coulomb evaluator failed
-4876- type_coulomb_setupBoundaryConditions: Could not setup numerical thresholds
-4875- type_latticepoint_update: Could not generate lattice points
-4874- xtb_calculator_singlepoint: Electronic structure method terminated
-4873- scf: Setup of Coulomb evaluator failed
-4872- type_coulomb_setupBoundaryConditions: Could not setup numerical thresholds
-4871- type_latticepoint_update: Could not generate lattice points
-4870- xtb_calculator_singlepoint: Electronic structure method terminated
-4869- scf: Setup of Coulomb evaluator failed
-4868- type_coulomb_setupBoundaryConditions: Could not setup numerical thresholds
-4867- type_latticepoint_update: Could not generate lattice points
-4866- xtb_calculator_singlepoint: Electronic structure method terminated
-4865- scf: Setup of Coulomb evaluator failed
-4864- type_coulomb_setupBoundaryConditions: Could not setup numerical thresholds
-4863- type_latticepoint_update: Could not generate lattice points
-4862- xtb_calculator_singlepoint: Electronic structure method terminated
-4861- scf: Setup of Coulomb evaluator failed
-4860- type_coulomb_setupBoundaryConditions: Could not setup numerical thresholds
-4859- type_latticepoint_update: Could not generate lattice points
-4858- xtb_calculator_singlepoint: Electronic structure method terminated
-4857- scf: Setup of Coulomb evaluator failed
-4856- type_coulomb_setupBoundaryConditions: Could not setup numerical thresholds
-4855- type_latticepoint_update: Could not generate lattice points
-4854- xtb_calculator_singlepoint: Electronic structure method terminated
-4853- scf: Setup of Coulomb evaluator failed
-4852- type_coulomb_setupBoundaryConditions: Could not setup numerical thresholds
-4851- type_latticepoint_update: Could not generate lattice points
-4850- xtb_calculator_singlepoint: Electronic structure method terminated
-4849- scf: Setup of Coulomb evaluator failed
-4848- type_coulomb_setupBoundaryConditions: Could not setup numerical thresholds
-4847- type_latticepoint_update: Could not generate lattice points
-4846- xtb_calculator_singlepoint: Electronic structure method terminated
-4845- scf: Setup of Coulomb evaluator failed
-4844- type_coulomb_setupBoundaryConditions: Could not setup numerical thresholds
-4843- type_latticepoint_update: Could not generate lattice points
-4842- xtb_calculator_singlepoint: Electronic structure method terminated
-4841- scf: Setup of Coulomb evaluator failed
-4840- type_coulomb_setupBoundaryConditions: Could not setup numerical thresholds
-4839- type_latticepoint_update: Could not generate lattice points
-4838- xtb_calculator_singlepoint: Electronic structure method terminated
-4837- scf: Setup of Coulomb evaluator failed
-4836- type_coulomb_setupBoundaryConditions: Could not setup numerical thresholds
-4835- type_latticepoint_update: Could not generate lattice points
-4834- xtb_calculator_singlepoint: Electronic structure method terminated
-4833- scf: Setup of Coulomb evaluator failed
-4832- type_coulomb_setupBoundaryConditions: Could not setup numerical thresholds
-4831- type_latticepoint_update: Could not generate lattice points
-4830- xtb_calculator_singlepoint: Electronic structure method terminated
-4829- scf: Setup of Coulomb evaluator failed
-4828- type_coulomb_setupBoundaryConditions: Could not setup numerical thresholds
-4827- type_latticepoint_update: Could not generate lattice points
-4826- xtb_calculator_singlepoint: Electronic structure method terminated
-4825- scf: Setup of Coulomb evaluator failed
-4824- type_coulomb_setupBoundaryConditions: Could not setup numerical thresholds
-4823- type_latticepoint_update: Could not generate lattice points
-4822- xtb_calculator_singlepoint: Electronic structure method terminated
-4821- scf: Setup of Coulomb evaluator failed
-4820- type_coulomb_setupBoundaryConditions: Could not setup numerical thresholds
-4819- type_latticepoint_update: Could not generate lattice points
-4818- xtb_calculator_singlepoint: Electronic structure method terminated
-4817- scf: Setup of Coulomb evaluator failed
-4816- type_coulomb_setupBoundaryConditions: Could not setup numerical thresholds
-4815- type_latticepoint_update: Could not generate lattice points
-4814- xtb_calculator_singlepoint: Electronic structure method terminated
-4813- scf: Setup of Coulomb evaluator failed
-4812- type_coulomb_setupBoundaryConditions: Could not setup numerical thresholds
-4811- type_latticepoint_update: Could not generate lattice points
-4810- xtb_calculator_singlepoint: Electronic structure method terminated
-4809- scf: Setup of Coulomb evaluator failed
-4808- type_coulomb_setupBoundaryConditions: Could not setup numerical thresholds
-4807- type_latticepoint_update: Could not generate lattice points
-4806- xtb_calculator_singlepoint: Electronic structure method terminated
-4805- scf: Setup of Coulomb evaluator failed
-4804- type_coulomb_setupBoundaryConditions: Could not setup numerical thresholds
-4803- type_latticepoint_update: Could not generate lattice points
-4802- xtb_calculator_singlepoint: Electronic structure method terminated
-4801- scf: Setup of Coulomb evaluator failed
-4800- type_coulomb_setupBoundaryConditions: Could not setup numerical thresholds
-4799- type_latticepoint_update: Could not generate lattice points
-4798- xtb_calculator_singlepoint: Electronic structure method terminated
-4797- scf: Setup of Coulomb evaluator failed
-4796- type_coulomb_setupBoundaryConditions: Could not setup numerical thresholds
-4795- type_latticepoint_update: Could not generate lattice points
-4794- xtb_calculator_singlepoint: Electronic structure method terminated
-4793- scf: Setup of Coulomb evaluator failed
-4792- type_coulomb_setupBoundaryConditions: Could not setup numerical thresholds
-4791- type_latticepoint_update: Could not generate lattice points
-4790- xtb_calculator_singlepoint: Electronic structure method terminated
-4789- scf: Setup of Coulomb evaluator failed
-4788- type_coulomb_setupBoundaryConditions: Could not setup numerical thresholds
-4787- type_latticepoint_update: Could not generate lattice points
-4786- xtb_calculator_singlepoint: Electronic structure method terminated
-4785- scf: Setup of Coulomb evaluator failed
-4784- type_coulomb_setupBoundaryConditions: Could not setup numerical thresholds
-4783- type_latticepoint_update: Could not generate lattice points
-4782- xtb_calculator_singlepoint: Electronic structure method terminated
-4781- scf: Setup of Coulomb evaluator failed
-4780- type_coulomb_setupBoundaryConditions: Could not setup numerical thresholds
-4779- type_latticepoint_update: Could not generate lattice points
-4778- xtb_calculator_singlepoint: Electronic structure method terminated
-4777- scf: Setup of Coulomb evaluator failed
-4776- type_coulomb_setupBoundaryConditions: Could not setup numerical thresholds
-4775- type_latticepoint_update: Could not generate lattice points
-4774- xtb_calculator_singlepoint: Electronic structure method terminated
-4773- scf: Setup of Coulomb evaluator failed
-4772- type_coulomb_setupBoundaryConditions: Could not setup numerical thresholds
-4771- type_latticepoint_update: Could not generate lattice points
-4770- xtb_calculator_singlepoint: Electronic structure method terminated
-4769- scf: Setup of Coulomb evaluator failed
-4768- type_coulomb_setupBoundaryConditions: Could not setup numerical thresholds
-4767- type_latticepoint_update: Could not generate lattice points
-4766- xtb_calculator_singlepoint: Electronic structure method terminated
-4765- scf: Setup of Coulomb evaluator failed
-4764- type_coulomb_setupBoundaryConditions: Could not setup numerical thresholds
-4763- type_latticepoint_update: Could not generate lattice points
-4762- xtb_calculator_singlepoint: Electronic structure method terminated
-4761- scf: Setup of Coulomb evaluator failed
-4760- type_coulomb_setupBoundaryConditions: Could not setup numerical thresholds
-4759- type_latticepoint_update: Could not generate lattice points
-4758- xtb_calculator_singlepoint: Electronic structure method terminated
-4757- scf: Setup of Coulomb evaluator failed
-4756- type_coulomb_setupBoundaryConditions: Could not setup numerical thresholds
-4755- type_latticepoint_update: Could not generate lattice points
-4754- xtb_calculator_singlepoint: Electronic structure method terminated
-4753- scf: Setup of Coulomb evaluator failed
-4752- type_coulomb_setupBoundaryConditions: Could not setup numerical thresholds
-4751- type_latticepoint_update: Could not generate lattice points
-4750- xtb_calculator_singlepoint: Electronic structure method terminated
-4749- scf: Setup of Coulomb evaluator failed
-4748- type_coulomb_setupBoundaryConditions: Could not setup numerical thresholds
-4747- type_latticepoint_update: Could not generate lattice points
-4746- xtb_calculator_singlepoint: Electronic structure method terminated
-4745- scf: Setup of Coulomb evaluator failed
-4744- type_coulomb_setupBoundaryConditions: Could not setup numerical thresholds
-4743- type_latticepoint_update: Could not generate lattice points
-4742- xtb_calculator_singlepoint: Electronic structure method terminated
-4741- scf: Setup of Coulomb evaluator failed
-4740- type_coulomb_setupBoundaryConditions: Could not setup numerical thresholds
-4739- type_latticepoint_update: Could not generate lattice points
-4738- xtb_calculator_singlepoint: Electronic structure method terminated
-4737- scf: Setup of Coulomb evaluator failed
-4736- type_coulomb_setupBoundaryConditions: Could not setup numerical thresholds
-4735- type_latticepoint_update: Could not generate lattice points
-4734- xtb_calculator_singlepoint: Electronic structure method terminated
-4733- scf: Setup of Coulomb evaluator failed
-4732- type_coulomb_setupBoundaryConditions: Could not setup numerical thresholds
-4731- type_latticepoint_update: Could not generate lattice points
-4730- xtb_calculator_singlepoint: Electronic structure method terminated
-4729- scf: Setup of Coulomb evaluator failed
-4728- type_coulomb_setupBoundaryConditions: Could not setup numerical thresholds
-4727- type_latticepoint_update: Could not generate lattice points
-4726- xtb_calculator_singlepoint: Electronic structure method terminated
-4725- scf: Setup of Coulomb evaluator failed
-4724- type_coulomb_setupBoundaryConditions: Could not setup numerical thresholds
-4723- type_latticepoint_update: Could not generate lattice points
-4722- xtb_calculator_singlepoint: Electronic structure method terminated
-4721- scf: Setup of Coulomb evaluator failed
-4720- type_coulomb_setupBoundaryConditions: Could not setup numerical thresholds
-4719- type_latticepoint_update: Could not generate lattice points
-4718- xtb_calculator_singlepoint: Electronic structure method terminated
-4717- scf: Setup of Coulomb evaluator failed
-4716- type_coulomb_setupBoundaryConditions: Could not setup numerical thresholds
-4715- type_latticepoint_update: Could not generate lattice points
-4714- xtb_calculator_singlepoint: Electronic structure method terminated
-4713- scf: Setup of Coulomb evaluator failed
-4712- type_coulomb_setupBoundaryConditions: Could not setup numerical thresholds
-4711- type_latticepoint_update: Could not generate lattice points
-4710- xtb_calculator_singlepoint: Electronic structure method terminated
-4709- scf: Setup of Coulomb evaluator failed
-4708- type_coulomb_setupBoundaryConditions: Could not setup numerical thresholds
-4707- type_latticepoint_update: Could not generate lattice points
-4706- xtb_calculator_singlepoint: Electronic structure method terminated
-4705- scf: Setup of Coulomb evaluator failed
-4704- type_coulomb_setupBoundaryConditions: Could not setup numerical thresholds
-4703- type_latticepoint_update: Could not generate lattice points
-4702- xtb_calculator_singlepoint: Electronic structure method terminated
-4701- scf: Setup of Coulomb evaluator failed
-4700- type_coulomb_setupBoundaryConditions: Could not setup numerical thresholds
-4699- type_latticepoint_update: Could not generate lattice points
-4698- xtb_calculator_singlepoint: Electronic structure method terminated
-4697- scf: Setup of Coulomb evaluator failed
-4696- type_coulomb_setupBoundaryConditions: Could not setup numerical thresholds
-4695- type_latticepoint_update: Could not generate lattice points
-4694- xtb_calculator_singlepoint: Electronic structure method terminated
-4693- scf: Setup of Coulomb evaluator failed
-4692- type_coulomb_setupBoundaryConditions: Could not setup numerical thresholds
-4691- type_latticepoint_update: Could not generate lattice points
-4690- xtb_calculator_singlepoint: Electronic structure method terminated
-4689- scf: Setup of Coulomb evaluator failed
-4688- type_coulomb_setupBoundaryConditions: Could not setup numerical thresholds
-4687- type_latticepoint_update: Could not generate lattice points
-4686- xtb_calculator_singlepoint: Electronic structure method terminated
-4685- scf: Setup of Coulomb evaluator failed
-4684- type_coulomb_setupBoundaryConditions: Could not setup numerical thresholds
-4683- type_latticepoint_update: Could not generate lattice points
-4682- xtb_calculator_singlepoint: Electronic structure method terminated
-4681- scf: Setup of Coulomb evaluator failed
-4680- type_coulomb_setupBoundaryConditions: Could not setup numerical thresholds
-4679- type_latticepoint_update: Could not generate lattice points
-4678- xtb_calculator_singlepoint: Electronic structure method terminated
-4677- scf: Setup of Coulomb evaluator failed
-4676- type_coulomb_setupBoundaryConditions: Could not setup numerical thresholds
-4675- type_latticepoint_update: Could not generate lattice points
-4674- xtb_calculator_singlepoint: Electronic structure method terminated
-4673- scf: Setup of Coulomb evaluator failed
-4672- type_coulomb_setupBoundaryConditions: Could not setup numerical thresholds
-4671- type_latticepoint_update: Could not generate lattice points
-4670- xtb_calculator_singlepoint: Electronic structure method terminated
-4669- scf: Setup of Coulomb evaluator failed
-4668- type_coulomb_setupBoundaryConditions: Could not setup numerical thresholds
-4667- type_latticepoint_update: Could not generate lattice points
-4666- xtb_calculator_singlepoint: Electronic structure method terminated
-4665- scf: Setup of Coulomb evaluator failed
-4664- type_coulomb_setupBoundaryConditions: Could not setup numerical thresholds
-4663- type_latticepoint_update: Could not generate lattice points
-4662- xtb_calculator_singlepoint: Electronic structure method terminated
-4661- scf: Setup of Coulomb evaluator failed
-4660- type_coulomb_setupBoundaryConditions: Could not setup numerical thresholds
-4659- type_latticepoint_update: Could not generate lattice points
-4658- xtb_calculator_singlepoint: Electronic structure method terminated
-4657- scf: Setup of Coulomb evaluator failed
-4656- type_coulomb_setupBoundaryConditions: Could not setup numerical thresholds
-4655- type_latticepoint_update: Could not generate lattice points
-4654- xtb_calculator_singlepoint: Electronic structure method terminated
-4653- scf: Setup of Coulomb evaluator failed
-4652- type_coulomb_setupBoundaryConditions: Could not setup numerical thresholds
-4651- type_latticepoint_update: Could not generate lattice points
-4650- xtb_calculator_singlepoint: Electronic structure method terminated
-4649- scf: Setup of Coulomb evaluator failed
-4648- type_coulomb_setupBoundaryConditions: Could not setup numerical thresholds
-4647- type_latticepoint_update: Could not generate lattice points
-4646- xtb_calculator_singlepoint: Electronic structure method terminated
-4645- scf: Setup of Coulomb evaluator failed
-4644- type_coulomb_setupBoundaryConditions: Could not setup numerical thresholds
-4643- type_latticepoint_update: Could not generate lattice points
-4642- xtb_calculator_singlepoint: Electronic structure method terminated
-4641- scf: Setup of Coulomb evaluator failed
-4640- type_coulomb_setupBoundaryConditions: Could not setup numerical thresholds
-4639- type_latticepoint_update: Could not generate lattice points
-4638- xtb_calculator_singlepoint: Electronic structure method terminated
-4637- scf: Setup of Coulomb evaluator failed
-4636- type_coulomb_setupBoundaryConditions: Could not setup numerical thresholds
-4635- type_latticepoint_update: Could not generate lattice points
-4634- xtb_calculator_singlepoint: Electronic structure method terminated
-4633- scf: Setup of Coulomb evaluator failed
-4632- type_coulomb_setupBoundaryConditions: Could not setup numerical thresholds
-4631- type_latticepoint_update: Could not generate lattice points
-4630- xtb_calculator_singlepoint: Electronic structure method terminated
-4629- scf: Setup of Coulomb evaluator failed
-4628- type_coulomb_setupBoundaryConditions: Could not setup numerical thresholds
-4627- type_latticepoint_update: Could not generate lattice points
-4626- xtb_calculator_singlepoint: Electronic structure method terminated
-4625- scf: Setup of Coulomb evaluator failed
-4624- type_coulomb_setupBoundaryConditions: Could not setup numerical thresholds
-4623- type_latticepoint_update: Could not generate lattice points
-4622- xtb_calculator_singlepoint: Electronic structure method terminated
-4621- scf: Setup of Coulomb evaluator failed
-4620- type_coulomb_setupBoundaryConditions: Could not setup numerical thresholds
-4619- type_latticepoint_update: Could not generate lattice points
-4618- xtb_calculator_singlepoint: Electronic structure method terminated
-4617- scf: Setup of Coulomb evaluator failed
-4616- type_coulomb_setupBoundaryConditions: Could not setup numerical thresholds
-4615- type_latticepoint_update: Could not generate lattice points
-4614- xtb_calculator_singlepoint: Electronic structure method terminated
-4613- scf: Setup of Coulomb evaluator failed
-4612- type_coulomb_setupBoundaryConditions: Could not setup numerical thresholds
-4611- type_latticepoint_update: Could not generate lattice points
-4610- xtb_calculator_singlepoint: Electronic structure method terminated
-4609- scf: Setup of Coulomb evaluator failed
-4608- type_coulomb_setupBoundaryConditions: Could not setup numerical thresholds
-4607- type_latticepoint_update: Could not generate lattice points
-4606- xtb_calculator_singlepoint: Electronic structure method terminated
-4605- scf: Setup of Coulomb evaluator failed
-4604- type_coulomb_setupBoundaryConditions: Could not setup numerical thresholds
-4603- type_latticepoint_update: Could not generate lattice points
-4602- xtb_calculator_singlepoint: Electronic structure method terminated
-4601- scf: Setup of Coulomb evaluator failed
-4600- type_coulomb_setupBoundaryConditions: Could not setup numerical thresholds
-4599- type_latticepoint_update: Could not generate lattice points
-4598- xtb_calculator_singlepoint: Electronic structure method terminated
-4597- scf: Setup of Coulomb evaluator failed
-4596- type_coulomb_setupBoundaryConditions: Could not setup numerical thresholds
-4595- type_latticepoint_update: Could not generate lattice points
-4594- xtb_calculator_singlepoint: Electronic structure method terminated
-4593- scf: Setup of Coulomb evaluator failed
-4592- type_coulomb_setupBoundaryConditions: Could not setup numerical thresholds
-4591- type_latticepoint_update: Could not generate lattice points
-4590- xtb_calculator_singlepoint: Electronic structure method terminated
-4589- scf: Setup of Coulomb evaluator failed
-4588- type_coulomb_setupBoundaryConditions: Could not setup numerical thresholds
-4587- type_latticepoint_update: Could not generate lattice points
-4586- xtb_calculator_singlepoint: Electronic structure method terminated
-4585- scf: Setup of Coulomb evaluator failed
-4584- type_coulomb_setupBoundaryConditions: Could not setup numerical thresholds
-4583- type_latticepoint_update: Could not generate lattice points
-4582- xtb_calculator_singlepoint: Electronic structure method terminated
-4581- scf: Setup of Coulomb evaluator failed
-4580- type_coulomb_setupBoundaryConditions: Could not setup numerical thresholds
-4579- type_latticepoint_update: Could not generate lattice points
-4578- xtb_calculator_singlepoint: Electronic structure method terminated
-4577- scf: Setup of Coulomb evaluator failed
-4576- type_coulomb_setupBoundaryConditions: Could not setup numerical thresholds
-4575- type_latticepoint_update: Could not generate lattice points
-4574- xtb_calculator_singlepoint: Electronic structure method terminated
-4573- scf: Setup of Coulomb evaluator failed
-4572- type_coulomb_setupBoundaryConditions: Could not setup numerical thresholds
-4571- type_latticepoint_update: Could not generate lattice points
-4570- xtb_calculator_singlepoint: Electronic structure method terminated
-4569- scf: Setup of Coulomb evaluator failed
-4568- type_coulomb_setupBoundaryConditions: Could not setup numerical thresholds
-4567- type_latticepoint_update: Could not generate lattice points
-4566- xtb_calculator_singlepoint: Electronic structure method terminated
-4565- scf: Setup of Coulomb evaluator failed
-4564- type_coulomb_setupBoundaryConditions: Could not setup numerical thresholds
-4563- type_latticepoint_update: Could not generate lattice points
-4562- xtb_calculator_singlepoint: Electronic structure method terminated
-4561- scf: Setup of Coulomb evaluator failed
-4560- type_coulomb_setupBoundaryConditions: Could not setup numerical thresholds
-4559- type_latticepoint_update: Could not generate lattice points
-4558- xtb_calculator_singlepoint: Electronic structure method terminated
-4557- scf: Setup of Coulomb evaluator failed
-4556- type_coulomb_setupBoundaryConditions: Could not setup numerical thresholds
-4555- type_latticepoint_update: Could not generate lattice points
-4554- xtb_calculator_singlepoint: Electronic structure method terminated
-4553- scf: Setup of Coulomb evaluator failed
-4552- type_coulomb_setupBoundaryConditions: Could not setup numerical thresholds
-4551- type_latticepoint_update: Could not generate lattice points
-4550- xtb_calculator_singlepoint: Electronic structure method terminated
-4549- scf: Setup of Coulomb evaluator failed
-4548- type_coulomb_setupBoundaryConditions: Could not setup numerical thresholds
-4547- type_latticepoint_update: Could not generate lattice points
-4546- xtb_calculator_singlepoint: Electronic structure method terminated
-4545- scf: Setup of Coulomb evaluator failed
-4544- type_coulomb_setupBoundaryConditions: Could not setup numerical thresholds
-4543- type_latticepoint_update: Could not generate lattice points
-4542- xtb_calculator_singlepoint: Electronic structure method terminated
-4541- scf: Setup of Coulomb evaluator failed
-4540- type_coulomb_setupBoundaryConditions: Could not setup numerical thresholds
-4539- type_latticepoint_update: Could not generate lattice points
-4538- xtb_calculator_singlepoint: Electronic structure method terminated
-4537- scf: Setup of Coulomb evaluator failed
-4536- type_coulomb_setupBoundaryConditions: Could not setup numerical thresholds
-4535- type_latticepoint_update: Could not generate lattice points
-4534- xtb_calculator_singlepoint: Electronic structure method terminated
-4533- scf: Setup of Coulomb evaluator failed
-4532- type_coulomb_setupBoundaryConditions: Could not setup numerical thresholds
-4531- type_latticepoint_update: Could not generate lattice points
-4530- xtb_calculator_singlepoint: Electronic structure method terminated
-4529- scf: Setup of Coulomb evaluator failed
-4528- type_coulomb_setupBoundaryConditions: Could not setup numerical thresholds
-4527- type_latticepoint_update: Could not generate lattice points
-4526- xtb_calculator_singlepoint: Electronic structure method terminated
-4525- scf: Setup of Coulomb evaluator failed
-4524- type_coulomb_setupBoundaryConditions: Could not setup numerical thresholds
-4523- type_latticepoint_update: Could not generate lattice points
-4522- xtb_calculator_singlepoint: Electronic structure method terminated
-4521- scf: Setup of Coulomb evaluator failed
-4520- type_coulomb_setupBoundaryConditions: Could not setup numerical thresholds
-4519- type_latticepoint_update: Could not generate lattice points
-4518- xtb_calculator_singlepoint: Electronic structure method terminated
-4517- scf: Setup of Coulomb evaluator failed
-4516- type_coulomb_setupBoundaryConditions: Could not setup numerical thresholds
-4515- type_latticepoint_update: Could not generate lattice points
-4514- xtb_calculator_singlepoint: Electronic structure method terminated
-4513- scf: Setup of Coulomb evaluator failed
-4512- type_coulomb_setupBoundaryConditions: Could not setup numerical thresholds
-4511- type_latticepoint_update: Could not generate lattice points
-4510- xtb_calculator_singlepoint: Electronic structure method terminated
-4509- scf: Setup of Coulomb evaluator failed
-4508- type_coulomb_setupBoundaryConditions: Could not setup numerical thresholds
-4507- type_latticepoint_update: Could not generate lattice points
-4506- xtb_calculator_singlepoint: Electronic structure method terminated
-4505- scf: Setup of Coulomb evaluator failed
-4504- type_coulomb_setupBoundaryConditions: Could not setup numerical thresholds
-4503- type_latticepoint_update: Could not generate lattice points
-4502- xtb_calculator_singlepoint: Electronic structure method terminated
-4501- scf: Setup of Coulomb evaluator failed
-4500- type_coulomb_setupBoundaryConditions: Could not setup numerical thresholds
-4499- type_latticepoint_update: Could not generate lattice points
-4498- xtb_calculator_singlepoint: Electronic structure method terminated
-4497- scf: Setup of Coulomb evaluator failed
-4496- type_coulomb_setupBoundaryConditions: Could not setup numerical thresholds
-4495- type_latticepoint_update: Could not generate lattice points
-4494- xtb_calculator_singlepoint: Electronic structure method terminated
-4493- scf: Setup of Coulomb evaluator failed
-4492- type_coulomb_setupBoundaryConditions: Could not setup numerical thresholds
-4491- type_latticepoint_update: Could not generate lattice points
-4490- xtb_calculator_singlepoint: Electronic structure method terminated
-4489- scf: Setup of Coulomb evaluator failed
-4488- type_coulomb_setupBoundaryConditions: Could not setup numerical thresholds
-4487- type_latticepoint_update: Could not generate lattice points
-4486- xtb_calculator_singlepoint: Electronic structure method terminated
-4485- scf: Setup of Coulomb evaluator failed
-4484- type_coulomb_setupBoundaryConditions: Could not setup numerical thresholds
-4483- type_latticepoint_update: Could not generate lattice points
-4482- xtb_calculator_singlepoint: Electronic structure method terminated
-4481- scf: Setup of Coulomb evaluator failed
-4480- type_coulomb_setupBoundaryConditions: Could not setup numerical thresholds
-4479- type_latticepoint_update: Could not generate lattice points
-4478- xtb_calculator_singlepoint: Electronic structure method terminated
-4477- scf: Setup of Coulomb evaluator failed
-4476- type_coulomb_setupBoundaryConditions: Could not setup numerical thresholds
-4475- type_latticepoint_update: Could not generate lattice points
-4474- xtb_calculator_singlepoint: Electronic structure method terminated
-4473- scf: Setup of Coulomb evaluator failed
-4472- type_coulomb_setupBoundaryConditions: Could not setup numerical thresholds
-4471- type_latticepoint_update: Could not generate lattice points
-4470- xtb_calculator_singlepoint: Electronic structure method terminated
-4469- scf: Setup of Coulomb evaluator failed
-4468- type_coulomb_setupBoundaryConditions: Could not setup numerical thresholds
-4467- type_latticepoint_update: Could not generate lattice points
-4466- xtb_calculator_singlepoint: Electronic structure method terminated
-4465- scf: Setup of Coulomb evaluator failed
-4464- type_coulomb_setupBoundaryConditions: Could not setup numerical thresholds
-4463- type_latticepoint_update: Could not generate lattice points
-4462- xtb_calculator_singlepoint: Electronic structure method terminated
-4461- scf: Setup of Coulomb evaluator failed
-4460- type_coulomb_setupBoundaryConditions: Could not setup numerical thresholds
-4459- type_latticepoint_update: Could not generate lattice points
-4458- xtb_calculator_singlepoint: Electronic structure method terminated
-4457- scf: Setup of Coulomb evaluator failed
-4456- type_coulomb_setupBoundaryConditions: Could not setup numerical thresholds
-4455- type_latticepoint_update: Could not generate lattice points
-4454- xtb_calculator_singlepoint: Electronic structure method terminated
-4453- scf: Setup of Coulomb evaluator failed
-4452- type_coulomb_setupBoundaryConditions: Could not setup numerical thresholds
-4451- type_latticepoint_update: Could not generate lattice points
-4450- xtb_calculator_singlepoint: Electronic structure method terminated
-4449- scf: Setup of Coulomb evaluator failed
-4448- type_coulomb_setupBoundaryConditions: Could not setup numerical thresholds
-4447- type_latticepoint_update: Could not generate lattice points
-4446- xtb_calculator_singlepoint: Electronic structure method terminated
-4445- scf: Setup of Coulomb evaluator failed
-4444- type_coulomb_setupBoundaryConditions: Could not setup numerical thresholds
-4443- type_latticepoint_update: Could not generate lattice points
-4442- xtb_calculator_singlepoint: Electronic structure method terminated
-4441- scf: Setup of Coulomb evaluator failed
-4440- type_coulomb_setupBoundaryConditions: Could not setup numerical thresholds
-4439- type_latticepoint_update: Could not generate lattice points
-4438- xtb_calculator_singlepoint: Electronic structure method terminated
-4437- scf: Setup of Coulomb evaluator failed
-4436- type_coulomb_setupBoundaryConditions: Could not setup numerical thresholds
-4435- type_latticepoint_update: Could not generate lattice points
-4434- xtb_calculator_singlepoint: Electronic structure method terminated
-4433- scf: Setup of Coulomb evaluator failed
-4432- type_coulomb_setupBoundaryConditions: Could not setup numerical thresholds
-4431- type_latticepoint_update: Could not generate lattice points
-4430- xtb_calculator_singlepoint: Electronic structure method terminated
-4429- scf: Setup of Coulomb evaluator failed
-4428- type_coulomb_setupBoundaryConditions: Could not setup numerical thresholds
-4427- type_latticepoint_update: Could not generate lattice points
-4426- xtb_calculator_singlepoint: Electronic structure method terminated
-4425- scf: Setup of Coulomb evaluator failed
-4424- type_coulomb_setupBoundaryConditions: Could not setup numerical thresholds
-4423- type_latticepoint_update: Could not generate lattice points
-4422- xtb_calculator_singlepoint: Electronic structure method terminated
-4421- scf: Setup of Coulomb evaluator failed
-4420- type_coulomb_setupBoundaryConditions: Could not setup numerical thresholds
-4419- type_latticepoint_update: Could not generate lattice points
-4418- xtb_calculator_singlepoint: Electronic structure method terminated
-4417- scf: Setup of Coulomb evaluator failed
-4416- type_coulomb_setupBoundaryConditions: Could not setup numerical thresholds
-4415- type_latticepoint_update: Could not generate lattice points
-4414- xtb_calculator_singlepoint: Electronic structure method terminated
-4413- scf: Setup of Coulomb evaluator failed
-4412- type_coulomb_setupBoundaryConditions: Could not setup numerical thresholds
-4411- type_latticepoint_update: Could not generate lattice points
-4410- xtb_calculator_singlepoint: Electronic structure method terminated
-4409- scf: Setup of Coulomb evaluator failed
-4408- type_coulomb_setupBoundaryConditions: Could not setup numerical thresholds
-4407- type_latticepoint_update: Could not generate lattice points
-4406- xtb_calculator_singlepoint: Electronic structure method terminated
-4405- scf: Setup of Coulomb evaluator failed
-4404- type_coulomb_setupBoundaryConditions: Could not setup numerical thresholds
-4403- type_latticepoint_update: Could not generate lattice points
-4402- xtb_calculator_singlepoint: Electronic structure method terminated
-4401- scf: Setup of Coulomb evaluator failed
-4400- type_coulomb_setupBoundaryConditions: Could not setup numerical thresholds
-4399- type_latticepoint_update: Could not generate lattice points
-4398- xtb_calculator_singlepoint: Electronic structure method terminated
-4397- scf: Setup of Coulomb evaluator failed
-4396- type_coulomb_setupBoundaryConditions: Could not setup numerical thresholds
-4395- type_latticepoint_update: Could not generate lattice points
-4394- xtb_calculator_singlepoint: Electronic structure method terminated
-4393- scf: Setup of Coulomb evaluator failed
-4392- type_coulomb_setupBoundaryConditions: Could not setup numerical thresholds
-4391- type_latticepoint_update: Could not generate lattice points
-4390- xtb_calculator_singlepoint: Electronic structure method terminated
-4389- scf: Setup of Coulomb evaluator failed
-4388- type_coulomb_setupBoundaryConditions: Could not setup numerical thresholds
-4387- type_latticepoint_update: Could not generate lattice points
-4386- xtb_calculator_singlepoint: Electronic structure method terminated
-4385- scf: Setup of Coulomb evaluator failed
-4384- type_coulomb_setupBoundaryConditions: Could not setup numerical thresholds
-4383- type_latticepoint_update: Could not generate lattice points
-4382- xtb_calculator_singlepoint: Electronic structure method terminated
-4381- scf: Setup of Coulomb evaluator failed
-4380- type_coulomb_setupBoundaryConditions: Could not setup numerical thresholds
-4379- type_latticepoint_update: Could not generate lattice points
-4378- xtb_calculator_singlepoint: Electronic structure method terminated
-4377- scf: Setup of Coulomb evaluator failed
-4376- type_coulomb_setupBoundaryConditions: Could not setup numerical thresholds
-4375- type_latticepoint_update: Could not generate lattice points
-4374- xtb_calculator_singlepoint: Electronic structure method terminated
-4373- scf: Setup of Coulomb evaluator failed
-4372- type_coulomb_setupBoundaryConditions: Could not setup numerical thresholds
-4371- type_latticepoint_update: Could not generate lattice points
-4370- xtb_calculator_singlepoint: Electronic structure method terminated
-4369- scf: Setup of Coulomb evaluator failed
-4368- type_coulomb_setupBoundaryConditions: Could not setup numerical thresholds
-4367- type_latticepoint_update: Could not generate lattice points
-4366- xtb_calculator_singlepoint: Electronic structure method terminated
-4365- scf: Setup of Coulomb evaluator failed
-4364- type_coulomb_setupBoundaryConditions: Could not setup numerical thresholds
-4363- type_latticepoint_update: Could not generate lattice points
-4362- xtb_calculator_singlepoint: Electronic structure method terminated
-4361- scf: Setup of Coulomb evaluator failed
-4360- type_coulomb_setupBoundaryConditions: Could not setup numerical thresholds
-4359- type_latticepoint_update: Could not generate lattice points
-4358- xtb_calculator_singlepoint: Electronic structure method terminated
-4357- scf: Setup of Coulomb evaluator failed
-4356- type_coulomb_setupBoundaryConditions: Could not setup numerical thresholds
-4355- type_latticepoint_update: Could not generate lattice points
-4354- xtb_calculator_singlepoint: Electronic structure method terminated
-4353- scf: Setup of Coulomb evaluator failed
-4352- type_coulomb_setupBoundaryConditions: Could not setup numerical thresholds
-4351- type_latticepoint_update: Could not generate lattice points
-4350- xtb_calculator_singlepoint: Electronic structure method terminated
-4349- scf: Setup of Coulomb evaluator failed
-4348- type_coulomb_setupBoundaryConditions: Could not setup numerical thresholds
-4347- type_latticepoint_update: Could not generate lattice points
-4346- xtb_calculator_singlepoint: Electronic structure method terminated
-4345- scf: Setup of Coulomb evaluator failed
-4344- type_coulomb_setupBoundaryConditions: Could not setup numerical thresholds
-4343- type_latticepoint_update: Could not generate lattice points
-4342- xtb_calculator_singlepoint: Electronic structure method terminated
-4341- scf: Setup of Coulomb evaluator failed
-4340- type_coulomb_setupBoundaryConditions: Could not setup numerical thresholds
-4339- type_latticepoint_update: Could not generate lattice points
-4338- xtb_calculator_singlepoint: Electronic structure method terminated
-4337- scf: Setup of Coulomb evaluator failed
-4336- type_coulomb_setupBoundaryConditions: Could not setup numerical thresholds
-4335- type_latticepoint_update: Could not generate lattice points
-4334- xtb_calculator_singlepoint: Electronic structure method terminated
-4333- scf: Setup of Coulomb evaluator failed
-4332- type_coulomb_setupBoundaryConditions: Could not setup numerical thresholds
-4331- type_latticepoint_update: Could not generate lattice points
-4330- xtb_calculator_singlepoint: Electronic structure method terminated
-4329- scf: Setup of Coulomb evaluator failed
-4328- type_coulomb_setupBoundaryConditions: Could not setup numerical thresholds
-4327- type_latticepoint_update: Could not generate lattice points
-4326- xtb_calculator_singlepoint: Electronic structure method terminated
-4325- scf: Setup of Coulomb evaluator failed
-4324- type_coulomb_setupBoundaryConditions: Could not setup numerical thresholds
-4323- type_latticepoint_update: Could not generate lattice points
-4322- xtb_calculator_singlepoint: Electronic structure method terminated
-4321- scf: Setup of Coulomb evaluator failed
-4320- type_coulomb_setupBoundaryConditions: Could not setup numerical thresholds
-4319- type_latticepoint_update: Could not generate lattice points
-4318- xtb_calculator_singlepoint: Electronic structure method terminated
-4317- scf: Setup of Coulomb evaluator failed
-4316- type_coulomb_setupBoundaryConditions: Could not setup numerical thresholds
-4315- type_latticepoint_update: Could not generate lattice points
-4314- xtb_calculator_singlepoint: Electronic structure method terminated
-4313- scf: Setup of Coulomb evaluator failed
-4312- type_coulomb_setupBoundaryConditions: Could not setup numerical thresholds
-4311- type_latticepoint_update: Could not generate lattice points
-4310- xtb_calculator_singlepoint: Electronic structure method terminated
-4309- scf: Setup of Coulomb evaluator failed
-4308- type_coulomb_setupBoundaryConditions: Could not setup numerical thresholds
-4307- type_latticepoint_update: Could not generate lattice points
-4306- xtb_calculator_singlepoint: Electronic structure method terminated
-4305- scf: Setup of Coulomb evaluator failed
-4304- type_coulomb_setupBoundaryConditions: Could not setup numerical thresholds
-4303- type_latticepoint_update: Could not generate lattice points
-4302- xtb_calculator_singlepoint: Electronic structure method terminated
-4301- scf: Setup of Coulomb evaluator failed
-4300- type_coulomb_setupBoundaryConditions: Could not setup numerical thresholds
-4299- type_latticepoint_update: Could not generate lattice points
-4298- xtb_calculator_singlepoint: Electronic structure method terminated
-4297- scf: Setup of Coulomb evaluator failed
-4296- type_coulomb_setupBoundaryConditions: Could not setup numerical thresholds
-4295- type_latticepoint_update: Could not generate lattice points
-4294- xtb_calculator_singlepoint: Electronic structure method terminated
-4293- scf: Setup of Coulomb evaluator failed
-4292- type_coulomb_setupBoundaryConditions: Could not setup numerical thresholds
-4291- type_latticepoint_update: Could not generate lattice points
-4290- xtb_calculator_singlepoint: Electronic structure method terminated
-4289- scf: Setup of Coulomb evaluator failed
-4288- type_coulomb_setupBoundaryConditions: Could not setup numerical thresholds
-4287- type_latticepoint_update: Could not generate lattice points
-4286- xtb_calculator_singlepoint: Electronic structure method terminated
-4285- scf: Setup of Coulomb evaluator failed
-4284- type_coulomb_setupBoundaryConditions: Could not setup numerical thresholds
-4283- type_latticepoint_update: Could not generate lattice points
-4282- xtb_calculator_singlepoint: Electronic structure method terminated
-4281- scf: Setup of Coulomb evaluator failed
-4280- type_coulomb_setupBoundaryConditions: Could not setup numerical thresholds
-4279- type_latticepoint_update: Could not generate lattice points
-4278- xtb_calculator_singlepoint: Electronic structure method terminated
-4277- scf: Setup of Coulomb evaluator failed
-4276- type_coulomb_setupBoundaryConditions: Could not setup numerical thresholds
-4275- type_latticepoint_update: Could not generate lattice points
-4274- xtb_calculator_singlepoint: Electronic structure method terminated
-4273- scf: Setup of Coulomb evaluator failed
-4272- type_coulomb_setupBoundaryConditions: Could not setup numerical thresholds
-4271- type_latticepoint_update: Could not generate lattice points
-4270- xtb_calculator_singlepoint: Electronic structure method terminated
-4269- scf: Setup of Coulomb evaluator failed
-4268- type_coulomb_setupBoundaryConditions: Could not setup numerical thresholds
-4267- type_latticepoint_update: Could not generate lattice points
-4266- xtb_calculator_singlepoint: Electronic structure method terminated
-4265- scf: Setup of Coulomb evaluator failed
-4264- type_coulomb_setupBoundaryConditions: Could not setup numerical thresholds
-4263- type_latticepoint_update: Could not generate lattice points
-4262- xtb_calculator_singlepoint: Electronic structure method terminated
-4261- scf: Setup of Coulomb evaluator failed
-4260- type_coulomb_setupBoundaryConditions: Could not setup numerical thresholds
-4259- type_latticepoint_update: Could not generate lattice points
-4258- xtb_calculator_singlepoint: Electronic structure method terminated
-4257- scf: Setup of Coulomb evaluator failed
-4256- type_coulomb_setupBoundaryConditions: Could not setup numerical thresholds
-4255- type_latticepoint_update: Could not generate lattice points
-4254- xtb_calculator_singlepoint: Electronic structure method terminated
-4253- scf: Setup of Coulomb evaluator failed
-4252- type_coulomb_setupBoundaryConditions: Could not setup numerical thresholds
-4251- type_latticepoint_update: Could not generate lattice points
-4250- xtb_calculator_singlepoint: Electronic structure method terminated
-4249- scf: Setup of Coulomb evaluator failed
-4248- type_coulomb_setupBoundaryConditions: Could not setup numerical thresholds
-4247- type_latticepoint_update: Could not generate lattice points
-4246- xtb_calculator_singlepoint: Electronic structure method terminated
-4245- scf: Setup of Coulomb evaluator failed
-4244- type_coulomb_setupBoundaryConditions: Could not setup numerical thresholds
-4243- type_latticepoint_update: Could not generate lattice points
-4242- xtb_calculator_singlepoint: Electronic structure method terminated
-4241- scf: Setup of Coulomb evaluator failed
-4240- type_coulomb_setupBoundaryConditions: Could not setup numerical thresholds
-4239- type_latticepoint_update: Could not generate lattice points
-4238- xtb_calculator_singlepoint: Electronic structure method terminated
-4237- scf: Setup of Coulomb evaluator failed
-4236- type_coulomb_setupBoundaryConditions: Could not setup numerical thresholds
-4235- type_latticepoint_update: Could not generate lattice points
-4234- xtb_calculator_singlepoint: Electronic structure method terminated
-4233- scf: Setup of Coulomb evaluator failed
-4232- type_coulomb_setupBoundaryConditions: Could not setup numerical thresholds
-4231- type_latticepoint_update: Could not generate lattice points
-4230- xtb_calculator_singlepoint: Electronic structure method terminated
-4229- scf: Setup of Coulomb evaluator failed
-4228- type_coulomb_setupBoundaryConditions: Could not setup numerical thresholds
-4227- type_latticepoint_update: Could not generate lattice points
-4226- xtb_calculator_singlepoint: Electronic structure method terminated
-4225- scf: Setup of Coulomb evaluator failed
-4224- type_coulomb_setupBoundaryConditions: Could not setup numerical thresholds
-4223- type_latticepoint_update: Could not generate lattice points
-4222- xtb_calculator_singlepoint: Electronic structure method terminated
-4221- scf: Setup of Coulomb evaluator failed
-4220- type_coulomb_setupBoundaryConditions: Could not setup numerical thresholds
-4219- type_latticepoint_update: Could not generate lattice points
-4218- xtb_calculator_singlepoint: Electronic structure method terminated
-4217- scf: Setup of Coulomb evaluator failed
-4216- type_coulomb_setupBoundaryConditions: Could not setup numerical thresholds
-4215- type_latticepoint_update: Could not generate lattice points
-4214- xtb_calculator_singlepoint: Electronic structure method terminated
-4213- scf: Setup of Coulomb evaluator failed
-4212- type_coulomb_setupBoundaryConditions: Could not setup numerical thresholds
-4211- type_latticepoint_update: Could not generate lattice points
-4210- xtb_calculator_singlepoint: Electronic structure method terminated
-4209- scf: Setup of Coulomb evaluator failed
-4208- type_coulomb_setupBoundaryConditions: Could not setup numerical thresholds
-4207- type_latticepoint_update: Could not generate lattice points
-4206- xtb_calculator_singlepoint: Electronic structure method terminated
-4205- scf: Setup of Coulomb evaluator failed
-4204- type_coulomb_setupBoundaryConditions: Could not setup numerical thresholds
-4203- type_latticepoint_update: Could not generate lattice points
-4202- xtb_calculator_singlepoint: Electronic structure method terminated
-4201- scf: Setup of Coulomb evaluator failed
-4200- type_coulomb_setupBoundaryConditions: Could not setup numerical thresholds
-4199- type_latticepoint_update: Could not generate lattice points
-4198- xtb_calculator_singlepoint: Electronic structure method terminated
-4197- scf: Setup of Coulomb evaluator failed
-4196- type_coulomb_setupBoundaryConditions: Could not setup numerical thresholds
-4195- type_latticepoint_update: Could not generate lattice points
-4194- xtb_calculator_singlepoint: Electronic structure method terminated
-4193- scf: Setup of Coulomb evaluator failed
-4192- type_coulomb_setupBoundaryConditions: Could not setup numerical thresholds
-4191- type_latticepoint_update: Could not generate lattice points
-4190- xtb_calculator_singlepoint: Electronic structure method terminated
-4189- scf: Setup of Coulomb evaluator failed
-4188- type_coulomb_setupBoundaryConditions: Could not setup numerical thresholds
-4187- type_latticepoint_update: Could not generate lattice points
-4186- xtb_calculator_singlepoint: Electronic structure method terminated
-4185- scf: Setup of Coulomb evaluator failed
-4184- type_coulomb_setupBoundaryConditions: Could not setup numerical thresholds
-4183- type_latticepoint_update: Could not generate lattice points
-4182- xtb_calculator_singlepoint: Electronic structure method terminated
-4181- scf: Setup of Coulomb evaluator failed
-4180- type_coulomb_setupBoundaryConditions: Could not setup numerical thresholds
-4179- type_latticepoint_update: Could not generate lattice points
-4178- xtb_calculator_singlepoint: Electronic structure method terminated
-4177- scf: Setup of Coulomb evaluator failed
-4176- type_coulomb_setupBoundaryConditions: Could not setup numerical thresholds
-4175- type_latticepoint_update: Could not generate lattice points
-4174- xtb_calculator_singlepoint: Electronic structure method terminated
-4173- scf: Setup of Coulomb evaluator failed
-4172- type_coulomb_setupBoundaryConditions: Could not setup numerical thresholds
-4171- type_latticepoint_update: Could not generate lattice points
-4170- xtb_calculator_singlepoint: Electronic structure method terminated
-4169- scf: Setup of Coulomb evaluator failed
-4168- type_coulomb_setupBoundaryConditions: Could not setup numerical thresholds
-4167- type_latticepoint_update: Could not generate lattice points
-4166- xtb_calculator_singlepoint: Electronic structure method terminated
-4165- scf: Setup of Coulomb evaluator failed
-4164- type_coulomb_setupBoundaryConditions: Could not setup numerical thresholds
-4163- type_latticepoint_update: Could not generate lattice points
-4162- xtb_calculator_singlepoint: Electronic structure method terminated
-4161- scf: Setup of Coulomb evaluator failed
-4160- type_coulomb_setupBoundaryConditions: Could not setup numerical thresholds
-4159- type_latticepoint_update: Could not generate lattice points
-4158- xtb_calculator_singlepoint: Electronic structure method terminated
-4157- scf: Setup of Coulomb evaluator failed
-4156- type_coulomb_setupBoundaryConditions: Could not setup numerical thresholds
-4155- type_latticepoint_update: Could not generate lattice points
-4154- xtb_calculator_singlepoint: Electronic structure method terminated
-4153- scf: Setup of Coulomb evaluator failed
-4152- type_coulomb_setupBoundaryConditions: Could not setup numerical thresholds
-4151- type_latticepoint_update: Could not generate lattice points
-4150- xtb_calculator_singlepoint: Electronic structure method terminated
-4149- scf: Setup of Coulomb evaluator failed
-4148- type_coulomb_setupBoundaryConditions: Could not setup numerical thresholds
-4147- type_latticepoint_update: Could not generate lattice points
-4146- xtb_calculator_singlepoint: Electronic structure method terminated
-4145- scf: Setup of Coulomb evaluator failed
-4144- type_coulomb_setupBoundaryConditions: Could not setup numerical thresholds
-4143- type_latticepoint_update: Could not generate lattice points
-4142- xtb_calculator_singlepoint: Electronic structure method terminated
-4141- scf: Setup of Coulomb evaluator failed
-4140- type_coulomb_setupBoundaryConditions: Could not setup numerical thresholds
-4139- type_latticepoint_update: Could not generate lattice points
-4138- xtb_calculator_singlepoint: Electronic structure method terminated
-4137- scf: Setup of Coulomb evaluator failed
-4136- type_coulomb_setupBoundaryConditions: Could not setup numerical thresholds
-4135- type_latticepoint_update: Could not generate lattice points
-4134- xtb_calculator_singlepoint: Electronic structure method terminated
-4133- scf: Setup of Coulomb evaluator failed
-4132- type_coulomb_setupBoundaryConditions: Could not setup numerical thresholds
-4131- type_latticepoint_update: Could not generate lattice points
-4130- xtb_calculator_singlepoint: Electronic structure method terminated
-4129- scf: Setup of Coulomb evaluator failed
-4128- type_coulomb_setupBoundaryConditions: Could not setup numerical thresholds
-4127- type_latticepoint_update: Could not generate lattice points
-4126- xtb_calculator_singlepoint: Electronic structure method terminated
-4125- scf: Setup of Coulomb evaluator failed
-4124- type_coulomb_setupBoundaryConditions: Could not setup numerical thresholds
-4123- type_latticepoint_update: Could not generate lattice points
-4122- xtb_calculator_singlepoint: Electronic structure method terminated
-4121- scf: Setup of Coulomb evaluator failed
-4120- type_coulomb_setupBoundaryConditions: Could not setup numerical thresholds
-4119- type_latticepoint_update: Could not generate lattice points
-4118- xtb_calculator_singlepoint: Electronic structure method terminated
-4117- scf: Setup of Coulomb evaluator failed
-4116- type_coulomb_setupBoundaryConditions: Could not setup numerical thresholds
-4115- type_latticepoint_update: Could not generate lattice points
-4114- xtb_calculator_singlepoint: Electronic structure method terminated
-4113- scf: Setup of Coulomb evaluator failed
-4112- type_coulomb_setupBoundaryConditions: Could not setup numerical thresholds
-4111- type_latticepoint_update: Could not generate lattice points
-4110- xtb_calculator_singlepoint: Electronic structure method terminated
-4109- scf: Setup of Coulomb evaluator failed
-4108- type_coulomb_setupBoundaryConditions: Could not setup numerical thresholds
-4107- type_latticepoint_update: Could not generate lattice points
-4106- xtb_calculator_singlepoint: Electronic structure method terminated
-4105- scf: Setup of Coulomb evaluator failed
-4104- type_coulomb_setupBoundaryConditions: Could not setup numerical thresholds
-4103- type_latticepoint_update: Could not generate lattice points
-4102- xtb_calculator_singlepoint: Electronic structure method terminated
-4101- scf: Setup of Coulomb evaluator failed
-4100- type_coulomb_setupBoundaryConditions: Could not setup numerical thresholds
-4099- type_latticepoint_update: Could not generate lattice points
-4098- xtb_calculator_singlepoint: Electronic structure method terminated
-4097- scf: Setup of Coulomb evaluator failed
-4096- type_coulomb_setupBoundaryConditions: Could not setup numerical thresholds
-4095- type_latticepoint_update: Could not generate lattice points
-4094- xtb_calculator_singlepoint: Electronic structure method terminated
-4093- scf: Setup of Coulomb evaluator failed
-4092- type_coulomb_setupBoundaryConditions: Could not setup numerical thresholds
-4091- type_latticepoint_update: Could not generate lattice points
-4090- xtb_calculator_singlepoint: Electronic structure method terminated
-4089- scf: Setup of Coulomb evaluator failed
-4088- type_coulomb_setupBoundaryConditions: Could not setup numerical thresholds
-4087- type_latticepoint_update: Could not generate lattice points
-4086- xtb_calculator_singlepoint: Electronic structure method terminated
-4085- scf: Setup of Coulomb evaluator failed
-4084- type_coulomb_setupBoundaryConditions: Could not setup numerical thresholds
-4083- type_latticepoint_update: Could not generate lattice points
-4082- xtb_calculator_singlepoint: Electronic structure method terminated
-4081- scf: Setup of Coulomb evaluator failed
-4080- type_coulomb_setupBoundaryConditions: Could not setup numerical thresholds
-4079- type_latticepoint_update: Could not generate lattice points
-4078- xtb_calculator_singlepoint: Electronic structure method terminated
-4077- scf: Setup of Coulomb evaluator failed
-4076- type_coulomb_setupBoundaryConditions: Could not setup numerical thresholds
-4075- type_latticepoint_update: Could not generate lattice points
-4074- xtb_calculator_singlepoint: Electronic structure method terminated
-4073- scf: Setup of Coulomb evaluator failed
-4072- type_coulomb_setupBoundaryConditions: Could not setup numerical thresholds
-4071- type_latticepoint_update: Could not generate lattice points
-4070- xtb_calculator_singlepoint: Electronic structure method terminated
-4069- scf: Setup of Coulomb evaluator failed
-4068- type_coulomb_setupBoundaryConditions: Could not setup numerical thresholds
-4067- type_latticepoint_update: Could not generate lattice points
-4066- xtb_calculator_singlepoint: Electronic structure method terminated
-4065- scf: Setup of Coulomb evaluator failed
-4064- type_coulomb_setupBoundaryConditions: Could not setup numerical thresholds
-4063- type_latticepoint_update: Could not generate lattice points
-4062- xtb_calculator_singlepoint: Electronic structure method terminated
-4061- scf: Setup of Coulomb evaluator failed
-4060- type_coulomb_setupBoundaryConditions: Could not setup numerical thresholds
-4059- type_latticepoint_update: Could not generate lattice points
-4058- xtb_calculator_singlepoint: Electronic structure method terminated
-4057- scf: Setup of Coulomb evaluator failed
-4056- type_coulomb_setupBoundaryConditions: Could not setup numerical thresholds
-4055- type_latticepoint_update: Could not generate lattice points
-4054- xtb_calculator_singlepoint: Electronic structure method terminated
-4053- scf: Setup of Coulomb evaluator failed
-4052- type_coulomb_setupBoundaryConditions: Could not setup numerical thresholds
-4051- type_latticepoint_update: Could not generate lattice points
-4050- xtb_calculator_singlepoint: Electronic structure method terminated
-4049- scf: Setup of Coulomb evaluator failed
-4048- type_coulomb_setupBoundaryConditions: Could not setup numerical thresholds
-4047- type_latticepoint_update: Could not generate lattice points
-4046- xtb_calculator_singlepoint: Electronic structure method terminated
-4045- scf: Setup of Coulomb evaluator failed
-4044- type_coulomb_setupBoundaryConditions: Could not setup numerical thresholds
-4043- type_latticepoint_update: Could not generate lattice points
-4042- xtb_calculator_singlepoint: Electronic structure method terminated
-4041- scf: Setup of Coulomb evaluator failed
-4040- type_coulomb_setupBoundaryConditions: Could not setup numerical thresholds
-4039- type_latticepoint_update: Could not generate lattice points
-4038- xtb_calculator_singlepoint: Electronic structure method terminated
-4037- scf: Setup of Coulomb evaluator failed
-4036- type_coulomb_setupBoundaryConditions: Could not setup numerical thresholds
-4035- type_latticepoint_update: Could not generate lattice points
-4034- xtb_calculator_singlepoint: Electronic structure method terminated
-4033- scf: Setup of Coulomb evaluator failed
-4032- type_coulomb_setupBoundaryConditions: Could not setup numerical thresholds
-4031- type_latticepoint_update: Could not generate lattice points
-4030- xtb_calculator_singlepoint: Electronic structure method terminated
-4029- scf: Setup of Coulomb evaluator failed
-4028- type_coulomb_setupBoundaryConditions: Could not setup numerical thresholds
-4027- type_latticepoint_update: Could not generate lattice points
-4026- xtb_calculator_singlepoint: Electronic structure method terminated
-4025- scf: Setup of Coulomb evaluator failed
-4024- type_coulomb_setupBoundaryConditions: Could not setup numerical thresholds
-4023- type_latticepoint_update: Could not generate lattice points
-4022- xtb_calculator_singlepoint: Electronic structure method terminated
-4021- scf: Setup of Coulomb evaluator failed
-4020- type_coulomb_setupBoundaryConditions: Could not setup numerical thresholds
-4019- type_latticepoint_update: Could not generate lattice points
-4018- xtb_calculator_singlepoint: Electronic structure method terminated
-4017- scf: Setup of Coulomb evaluator failed
-4016- type_coulomb_setupBoundaryConditions: Could not setup numerical thresholds
-4015- type_latticepoint_update: Could not generate lattice points
-4014- xtb_calculator_singlepoint: Electronic structure method terminated
-4013- scf: Setup of Coulomb evaluator failed
-4012- type_coulomb_setupBoundaryConditions: Could not setup numerical thresholds
-4011- type_latticepoint_update: Could not generate lattice points
-4010- xtb_calculator_singlepoint: Electronic structure method terminated
-4009- scf: Setup of Coulomb evaluator failed
-4008- type_coulomb_setupBoundaryConditions: Could not setup numerical thresholds
-4007- type_latticepoint_update: Could not generate lattice points
-4006- xtb_calculator_singlepoint: Electronic structure method terminated
-4005- scf: Setup of Coulomb evaluator failed
-4004- type_coulomb_setupBoundaryConditions: Could not setup numerical thresholds
-4003- type_latticepoint_update: Could not generate lattice points
-4002- xtb_calculator_singlepoint: Electronic structure method terminated
-4001- scf: Setup of Coulomb evaluator failed
-4000- type_coulomb_setupBoundaryConditions: Could not setup numerical thresholds
-3999- type_latticepoint_update: Could not generate lattice points
-3998- xtb_calculator_singlepoint: Electronic structure method terminated
-3997- scf: Setup of Coulomb evaluator failed
-3996- type_coulomb_setupBoundaryConditions: Could not setup numerical thresholds
-3995- type_latticepoint_update: Could not generate lattice points
-3994- xtb_calculator_singlepoint: Electronic structure method terminated
-3993- scf: Setup of Coulomb evaluator failed
-3992- type_coulomb_setupBoundaryConditions: Could not setup numerical thresholds
-3991- type_latticepoint_update: Could not generate lattice points
-3990- xtb_calculator_singlepoint: Electronic structure method terminated
-3989- scf: Setup of Coulomb evaluator failed
-3988- type_coulomb_setupBoundaryConditions: Could not setup numerical thresholds
-3987- type_latticepoint_update: Could not generate lattice points
-3986- xtb_calculator_singlepoint: Electronic structure method terminated
-3985- scf: Setup of Coulomb evaluator failed
-3984- type_coulomb_setupBoundaryConditions: Could not setup numerical thresholds
-3983- type_latticepoint_update: Could not generate lattice points
-3982- xtb_calculator_singlepoint: Electronic structure method terminated
-3981- scf: Setup of Coulomb evaluator failed
-3980- type_coulomb_setupBoundaryConditions: Could not setup numerical thresholds
-3979- type_latticepoint_update: Could not generate lattice points
-3978- xtb_calculator_singlepoint: Electronic structure method terminated
-3977- scf: Setup of Coulomb evaluator failed
-3976- type_coulomb_setupBoundaryConditions: Could not setup numerical thresholds
-3975- type_latticepoint_update: Could not generate lattice points
-3974- xtb_calculator_singlepoint: Electronic structure method terminated
-3973- scf: Setup of Coulomb evaluator failed
-3972- type_coulomb_setupBoundaryConditions: Could not setup numerical thresholds
-3971- type_latticepoint_update: Could not generate lattice points
-3970- xtb_calculator_singlepoint: Electronic structure method terminated
-3969- scf: Setup of Coulomb evaluator failed
-3968- type_coulomb_setupBoundaryConditions: Could not setup numerical thresholds
-3967- type_latticepoint_update: Could not generate lattice points
-3966- xtb_calculator_singlepoint: Electronic structure method terminated
-3965- scf: Setup of Coulomb evaluator failed
-3964- type_coulomb_setupBoundaryConditions: Could not setup numerical thresholds
-3963- type_latticepoint_update: Could not generate lattice points
-3962- xtb_calculator_singlepoint: Electronic structure method terminated
-3961- scf: Setup of Coulomb evaluator failed
-3960- type_coulomb_setupBoundaryConditions: Could not setup numerical thresholds
-3959- type_latticepoint_update: Could not generate lattice points
-3958- xtb_calculator_singlepoint: Electronic structure method terminated
-3957- scf: Setup of Coulomb evaluator failed
-3956- type_coulomb_setupBoundaryConditions: Could not setup numerical thresholds
-3955- type_latticepoint_update: Could not generate lattice points
-3954- xtb_calculator_singlepoint: Electronic structure method terminated
-3953- scf: Setup of Coulomb evaluator failed
-3952- type_coulomb_setupBoundaryConditions: Could not setup numerical thresholds
-3951- type_latticepoint_update: Could not generate lattice points
-3950- xtb_calculator_singlepoint: Electronic structure method terminated
-3949- scf: Setup of Coulomb evaluator failed
-3948- type_coulomb_setupBoundaryConditions: Could not setup numerical thresholds
-3947- type_latticepoint_update: Could not generate lattice points
-3946- xtb_calculator_singlepoint: Electronic structure method terminated
-3945- scf: Setup of Coulomb evaluator failed
-3944- type_coulomb_setupBoundaryConditions: Could not setup numerical thresholds
-3943- type_latticepoint_update: Could not generate lattice points
-3942- xtb_calculator_singlepoint: Electronic structure method terminated
-3941- scf: Setup of Coulomb evaluator failed
-3940- type_coulomb_setupBoundaryConditions: Could not setup numerical thresholds
-3939- type_latticepoint_update: Could not generate lattice points
-3938- xtb_calculator_singlepoint: Electronic structure method terminated
-3937- scf: Setup of Coulomb evaluator failed
-3936- type_coulomb_setupBoundaryConditions: Could not setup numerical thresholds
-3935- type_latticepoint_update: Could not generate lattice points
-3934- xtb_calculator_singlepoint: Electronic structure method terminated
-3933- scf: Setup of Coulomb evaluator failed
-3932- type_coulomb_setupBoundaryConditions: Could not setup numerical thresholds
-3931- type_latticepoint_update: Could not generate lattice points
-3930- xtb_calculator_singlepoint: Electronic structure method terminated
-3929- scf: Setup of Coulomb evaluator failed
-3928- type_coulomb_setupBoundaryConditions: Could not setup numerical thresholds
-3927- type_latticepoint_update: Could not generate lattice points
-3926- xtb_calculator_singlepoint: Electronic structure method terminated
-3925- scf: Setup of Coulomb evaluator failed
-3924- type_coulomb_setupBoundaryConditions: Could not setup numerical thresholds
-3923- type_latticepoint_update: Could not generate lattice points
-3922- xtb_calculator_singlepoint: Electronic structure method terminated
-3921- scf: Setup of Coulomb evaluator failed
-3920- type_coulomb_setupBoundaryConditions: Could not setup numerical thresholds
-3919- type_latticepoint_update: Could not generate lattice points
-3918- xtb_calculator_singlepoint: Electronic structure method terminated
-3917- scf: Setup of Coulomb evaluator failed
-3916- type_coulomb_setupBoundaryConditions: Could not setup numerical thresholds
-3915- type_latticepoint_update: Could not generate lattice points
-3914- xtb_calculator_singlepoint: Electronic structure method terminated
-3913- scf: Setup of Coulomb evaluator failed
-3912- type_coulomb_setupBoundaryConditions: Could not setup numerical thresholds
-3911- type_latticepoint_update: Could not generate lattice points
-3910- xtb_calculator_singlepoint: Electronic structure method terminated
-3909- scf: Setup of Coulomb evaluator failed
-3908- type_coulomb_setupBoundaryConditions: Could not setup numerical thresholds
-3907- type_latticepoint_update: Could not generate lattice points
-3906- xtb_calculator_singlepoint: Electronic structure method terminated
-3905- scf: Setup of Coulomb evaluator failed
-3904- type_coulomb_setupBoundaryConditions: Could not setup numerical thresholds
-3903- type_latticepoint_update: Could not generate lattice points
-3902- xtb_calculator_singlepoint: Electronic structure method terminated
-3901- scf: Setup of Coulomb evaluator failed
-3900- type_coulomb_setupBoundaryConditions: Could not setup numerical thresholds
-3899- type_latticepoint_update: Could not generate lattice points
-3898- xtb_calculator_singlepoint: Electronic structure method terminated
-3897- scf: Setup of Coulomb evaluator failed
-3896- type_coulomb_setupBoundaryConditions: Could not setup numerical thresholds
-3895- type_latticepoint_update: Could not generate lattice points
-3894- xtb_calculator_singlepoint: Electronic structure method terminated
-3893- scf: Setup of Coulomb evaluator failed
-3892- type_coulomb_setupBoundaryConditions: Could not setup numerical thresholds
-3891- type_latticepoint_update: Could not generate lattice points
-3890- xtb_calculator_singlepoint: Electronic structure method terminated
-3889- scf: Setup of Coulomb evaluator failed
-3888- type_coulomb_setupBoundaryConditions: Could not setup numerical thresholds
-3887- type_latticepoint_update: Could not generate lattice points
-3886- xtb_calculator_singlepoint: Electronic structure method terminated
-3885- scf: Setup of Coulomb evaluator failed
-3884- type_coulomb_setupBoundaryConditions: Could not setup numerical thresholds
-3883- type_latticepoint_update: Could not generate lattice points
-3882- xtb_calculator_singlepoint: Electronic structure method terminated
-3881- scf: Setup of Coulomb evaluator failed
-3880- type_coulomb_setupBoundaryConditions: Could not setup numerical thresholds
-3879- type_latticepoint_update: Could not generate lattice points
-3878- xtb_calculator_singlepoint: Electronic structure method terminated
-3877- scf: Setup of Coulomb evaluator failed
-3876- type_coulomb_setupBoundaryConditions: Could not setup numerical thresholds
-3875- type_latticepoint_update: Could not generate lattice points
-3874- xtb_calculator_singlepoint: Electronic structure method terminated
-3873- scf: Setup of Coulomb evaluator failed
-3872- type_coulomb_setupBoundaryConditions: Could not setup numerical thresholds
-3871- type_latticepoint_update: Could not generate lattice points
-3870- xtb_calculator_singlepoint: Electronic structure method terminated
-3869- scf: Setup of Coulomb evaluator failed
-3868- type_coulomb_setupBoundaryConditions: Could not setup numerical thresholds
-3867- type_latticepoint_update: Could not generate lattice points
-3866- xtb_calculator_singlepoint: Electronic structure method terminated
-3865- scf: Setup of Coulomb evaluator failed
-3864- type_coulomb_setupBoundaryConditions: Could not setup numerical thresholds
-3863- type_latticepoint_update: Could not generate lattice points
-3862- xtb_calculator_singlepoint: Electronic structure method terminated
-3861- scf: Setup of Coulomb evaluator failed
-3860- type_coulomb_setupBoundaryConditions: Could not setup numerical thresholds
-3859- type_latticepoint_update: Could not generate lattice points
-3858- xtb_calculator_singlepoint: Electronic structure method terminated
-3857- scf: Setup of Coulomb evaluator failed
-3856- type_coulomb_setupBoundaryConditions: Could not setup numerical thresholds
-3855- type_latticepoint_update: Could not generate lattice points
-3854- xtb_calculator_singlepoint: Electronic structure method terminated
-3853- scf: Setup of Coulomb evaluator failed
-3852- type_coulomb_setupBoundaryConditions: Could not setup numerical thresholds
-3851- type_latticepoint_update: Could not generate lattice points
-3850- xtb_calculator_singlepoint: Electronic structure method terminated
-3849- scf: Setup of Coulomb evaluator failed
-3848- type_coulomb_setupBoundaryConditions: Could not setup numerical thresholds
-3847- type_latticepoint_update: Could not generate lattice points
-3846- xtb_calculator_singlepoint: Electronic structure method terminated
-3845- scf: Setup of Coulomb evaluator failed
-3844- type_coulomb_setupBoundaryConditions: Could not setup numerical thresholds
-3843- type_latticepoint_update: Could not generate lattice points
-3842- xtb_calculator_singlepoint: Electronic structure method terminated
-3841- scf: Setup of Coulomb evaluator failed
-3840- type_coulomb_setupBoundaryConditions: Could not setup numerical thresholds
-3839- type_latticepoint_update: Could not generate lattice points
-3838- xtb_calculator_singlepoint: Electronic structure method terminated
-3837- scf: Setup of Coulomb evaluator failed
-3836- type_coulomb_setupBoundaryConditions: Could not setup numerical thresholds
-3835- type_latticepoint_update: Could not generate lattice points
-3834- xtb_calculator_singlepoint: Electronic structure method terminated
-3833- scf: Setup of Coulomb evaluator failed
-3832- type_coulomb_setupBoundaryConditions: Could not setup numerical thresholds
-3831- type_latticepoint_update: Could not generate lattice points
-3830- xtb_calculator_singlepoint: Electronic structure method terminated
-3829- scf: Setup of Coulomb evaluator failed
-3828- type_coulomb_setupBoundaryConditions: Could not setup numerical thresholds
-3827- type_latticepoint_update: Could not generate lattice points
-3826- xtb_calculator_singlepoint: Electronic structure method terminated
-3825- scf: Setup of Coulomb evaluator failed
-3824- type_coulomb_setupBoundaryConditions: Could not setup numerical thresholds
-3823- type_latticepoint_update: Could not generate lattice points
-3822- xtb_calculator_singlepoint: Electronic structure method terminated
-3821- scf: Setup of Coulomb evaluator failed
-3820- type_coulomb_setupBoundaryConditions: Could not setup numerical thresholds
-3819- type_latticepoint_update: Could not generate lattice points
-3818- xtb_calculator_singlepoint: Electronic structure method terminated
-3817- scf: Setup of Coulomb evaluator failed
-3816- type_coulomb_setupBoundaryConditions: Could not setup numerical thresholds
-3815- type_latticepoint_update: Could not generate lattice points
-3814- xtb_calculator_singlepoint: Electronic structure method terminated
-3813- scf: Setup of Coulomb evaluator failed
-3812- type_coulomb_setupBoundaryConditions: Could not setup numerical thresholds
-3811- type_latticepoint_update: Could not generate lattice points
-3810- xtb_calculator_singlepoint: Electronic structure method terminated
-3809- scf: Setup of Coulomb evaluator failed
-3808- type_coulomb_setupBoundaryConditions: Could not setup numerical thresholds
-3807- type_latticepoint_update: Could not generate lattice points
-3806- xtb_calculator_singlepoint: Electronic structure method terminated
-3805- scf: Setup of Coulomb evaluator failed
-3804- type_coulomb_setupBoundaryConditions: Could not setup numerical thresholds
-3803- type_latticepoint_update: Could not generate lattice points
-3802- xtb_calculator_singlepoint: Electronic structure method terminated
-3801- scf: Setup of Coulomb evaluator failed
-3800- type_coulomb_setupBoundaryConditions: Could not setup numerical thresholds
-3799- type_latticepoint_update: Could not generate lattice points
-3798- xtb_calculator_singlepoint: Electronic structure method terminated
-3797- scf: Setup of Coulomb evaluator failed
-3796- type_coulomb_setupBoundaryConditions: Could not setup numerical thresholds
-3795- type_latticepoint_update: Could not generate lattice points
-3794- xtb_calculator_singlepoint: Electronic structure method terminated
-3793- scf: Setup of Coulomb evaluator failed
-3792- type_coulomb_setupBoundaryConditions: Could not setup numerical thresholds
-3791- type_latticepoint_update: Could not generate lattice points
-3790- xtb_calculator_singlepoint: Electronic structure method terminated
-3789- scf: Setup of Coulomb evaluator failed
-3788- type_coulomb_setupBoundaryConditions: Could not setup numerical thresholds
-3787- type_latticepoint_update: Could not generate lattice points
-3786- xtb_calculator_singlepoint: Electronic structure method terminated
-3785- scf: Setup of Coulomb evaluator failed
-3784- type_coulomb_setupBoundaryConditions: Could not setup numerical thresholds
-3783- type_latticepoint_update: Could not generate lattice points
-3782- xtb_calculator_singlepoint: Electronic structure method terminated
-3781- scf: Setup of Coulomb evaluator failed
-3780- type_coulomb_setupBoundaryConditions: Could not setup numerical thresholds
-3779- type_latticepoint_update: Could not generate lattice points
-3778- xtb_calculator_singlepoint: Electronic structure method terminated
-3777- scf: Setup of Coulomb evaluator failed
-3776- type_coulomb_setupBoundaryConditions: Could not setup numerical thresholds
-3775- type_latticepoint_update: Could not generate lattice points
-3774- xtb_calculator_singlepoint: Electronic structure method terminated
-3773- scf: Setup of Coulomb evaluator failed
-3772- type_coulomb_setupBoundaryConditions: Could not setup numerical thresholds
-3771- type_latticepoint_update: Could not generate lattice points
-3770- xtb_calculator_singlepoint: Electronic structure method terminated
-3769- scf: Setup of Coulomb evaluator failed
-3768- type_coulomb_setupBoundaryConditions: Could not setup numerical thresholds
-3767- type_latticepoint_update: Could not generate lattice points
-3766- xtb_calculator_singlepoint: Electronic structure method terminated
-3765- scf: Setup of Coulomb evaluator failed
-3764- type_coulomb_setupBoundaryConditions: Could not setup numerical thresholds
-3763- type_latticepoint_update: Could not generate lattice points
-3762- xtb_calculator_singlepoint: Electronic structure method terminated
-3761- scf: Setup of Coulomb evaluator failed
-3760- type_coulomb_setupBoundaryConditions: Could not setup numerical thresholds
-3759- type_latticepoint_update: Could not generate lattice points
-3758- xtb_calculator_singlepoint: Electronic structure method terminated
-3757- scf: Setup of Coulomb evaluator failed
-3756- type_coulomb_setupBoundaryConditions: Could not setup numerical thresholds
-3755- type_latticepoint_update: Could not generate lattice points
-3754- xtb_calculator_singlepoint: Electronic structure method terminated
-3753- scf: Setup of Coulomb evaluator failed
-3752- type_coulomb_setupBoundaryConditions: Could not setup numerical thresholds
-3751- type_latticepoint_update: Could not generate lattice points
-3750- xtb_calculator_singlepoint: Electronic structure method terminated
-3749- scf: Setup of Coulomb evaluator failed
-3748- type_coulomb_setupBoundaryConditions: Could not setup numerical thresholds
-3747- type_latticepoint_update: Could not generate lattice points
-3746- xtb_calculator_singlepoint: Electronic structure method terminated
-3745- scf: Setup of Coulomb evaluator failed
-3744- type_coulomb_setupBoundaryConditions: Could not setup numerical thresholds
-3743- type_latticepoint_update: Could not generate lattice points
-3742- xtb_calculator_singlepoint: Electronic structure method terminated
-3741- scf: Setup of Coulomb evaluator failed
-3740- type_coulomb_setupBoundaryConditions: Could not setup numerical thresholds
-3739- type_latticepoint_update: Could not generate lattice points
-3738- xtb_calculator_singlepoint: Electronic structure method terminated
-3737- scf: Setup of Coulomb evaluator failed
-3736- type_coulomb_setupBoundaryConditions: Could not setup numerical thresholds
-3735- type_latticepoint_update: Could not generate lattice points
-3734- xtb_calculator_singlepoint: Electronic structure method terminated
-3733- scf: Setup of Coulomb evaluator failed
-3732- type_coulomb_setupBoundaryConditions: Could not setup numerical thresholds
-3731- type_latticepoint_update: Could not generate lattice points
-3730- xtb_calculator_singlepoint: Electronic structure method terminated
-3729- scf: Setup of Coulomb evaluator failed
-3728- type_coulomb_setupBoundaryConditions: Could not setup numerical thresholds
-3727- type_latticepoint_update: Could not generate lattice points
-3726- xtb_calculator_singlepoint: Electronic structure method terminated
-3725- scf: Setup of Coulomb evaluator failed
-3724- type_coulomb_setupBoundaryConditions: Could not setup numerical thresholds
-3723- type_latticepoint_update: Could not generate lattice points
-3722- xtb_calculator_singlepoint: Electronic structure method terminated
-3721- scf: Setup of Coulomb evaluator failed
-3720- type_coulomb_setupBoundaryConditions: Could not setup numerical thresholds
-3719- type_latticepoint_update: Could not generate lattice points
-3718- xtb_calculator_singlepoint: Electronic structure method terminated
-3717- scf: Setup of Coulomb evaluator failed
-3716- type_coulomb_setupBoundaryConditions: Could not setup numerical thresholds
-3715- type_latticepoint_update: Could not generate lattice points
-3714- xtb_calculator_singlepoint: Electronic structure method terminated
-3713- scf: Setup of Coulomb evaluator failed
-3712- type_coulomb_setupBoundaryConditions: Could not setup numerical thresholds
-3711- type_latticepoint_update: Could not generate lattice points
-3710- xtb_calculator_singlepoint: Electronic structure method terminated
-3709- scf: Setup of Coulomb evaluator failed
-3708- type_coulomb_setupBoundaryConditions: Could not setup numerical thresholds
-3707- type_latticepoint_update: Could not generate lattice points
-3706- xtb_calculator_singlepoint: Electronic structure method terminated
-3705- scf: Setup of Coulomb evaluator failed
-3704- type_coulomb_setupBoundaryConditions: Could not setup numerical thresholds
-3703- type_latticepoint_update: Could not generate lattice points
-3702- xtb_calculator_singlepoint: Electronic structure method terminated
-3701- scf: Setup of Coulomb evaluator failed
-3700- type_coulomb_setupBoundaryConditions: Could not setup numerical thresholds
-3699- type_latticepoint_update: Could not generate lattice points
-3698- xtb_calculator_singlepoint: Electronic structure method terminated
-3697- scf: Setup of Coulomb evaluator failed
-3696- type_coulomb_setupBoundaryConditions: Could not setup numerical thresholds
-3695- type_latticepoint_update: Could not generate lattice points
-3694- xtb_calculator_singlepoint: Electronic structure method terminated
-3693- scf: Setup of Coulomb evaluator failed
-3692- type_coulomb_setupBoundaryConditions: Could not setup numerical thresholds
-3691- type_latticepoint_update: Could not generate lattice points
-3690- xtb_calculator_singlepoint: Electronic structure method terminated
-3689- scf: Setup of Coulomb evaluator failed
-3688- type_coulomb_setupBoundaryConditions: Could not setup numerical thresholds
-3687- type_latticepoint_update: Could not generate lattice points
-3686- xtb_calculator_singlepoint: Electronic structure method terminated
-3685- scf: Setup of Coulomb evaluator failed
-3684- type_coulomb_setupBoundaryConditions: Could not setup numerical thresholds
-3683- type_latticepoint_update: Could not generate lattice points
-3682- xtb_calculator_singlepoint: Electronic structure method terminated
-3681- scf: Setup of Coulomb evaluator failed
-3680- type_coulomb_setupBoundaryConditions: Could not setup numerical thresholds
-3679- type_latticepoint_update: Could not generate lattice points
-3678- xtb_calculator_singlepoint: Electronic structure method terminated
-3677- scf: Setup of Coulomb evaluator failed
-3676- type_coulomb_setupBoundaryConditions: Could not setup numerical thresholds
-3675- type_latticepoint_update: Could not generate lattice points
-3674- xtb_calculator_singlepoint: Electronic structure method terminated
-3673- scf: Setup of Coulomb evaluator failed
-3672- type_coulomb_setupBoundaryConditions: Could not setup numerical thresholds
-3671- type_latticepoint_update: Could not generate lattice points
-3670- xtb_calculator_singlepoint: Electronic structure method terminated
-3669- scf: Setup of Coulomb evaluator failed
-3668- type_coulomb_setupBoundaryConditions: Could not setup numerical thresholds
-3667- type_latticepoint_update: Could not generate lattice points
-3666- xtb_calculator_singlepoint: Electronic structure method terminated
-3665- scf: Setup of Coulomb evaluator failed
-3664- type_coulomb_setupBoundaryConditions: Could not setup numerical thresholds
-3663- type_latticepoint_update: Could not generate lattice points
-3662- xtb_calculator_singlepoint: Electronic structure method terminated
-3661- scf: Setup of Coulomb evaluator failed
-3660- type_coulomb_setupBoundaryConditions: Could not setup numerical thresholds
-3659- type_latticepoint_update: Could not generate lattice points
-3658- xtb_calculator_singlepoint: Electronic structure method terminated
-3657- scf: Setup of Coulomb evaluator failed
-3656- type_coulomb_setupBoundaryConditions: Could not setup numerical thresholds
-3655- type_latticepoint_update: Could not generate lattice points
-3654- xtb_calculator_singlepoint: Electronic structure method terminated
-3653- scf: Setup of Coulomb evaluator failed
-3652- type_coulomb_setupBoundaryConditions: Could not setup numerical thresholds
-3651- type_latticepoint_update: Could not generate lattice points
-3650- xtb_calculator_singlepoint: Electronic structure method terminated
-3649- scf: Setup of Coulomb evaluator failed
-3648- type_coulomb_setupBoundaryConditions: Could not setup numerical thresholds
-3647- type_latticepoint_update: Could not generate lattice points
-3646- xtb_calculator_singlepoint: Electronic structure method terminated
-3645- scf: Setup of Coulomb evaluator failed
-3644- type_coulomb_setupBoundaryConditions: Could not setup numerical thresholds
-3643- type_latticepoint_update: Could not generate lattice points
-3642- xtb_calculator_singlepoint: Electronic structure method terminated
-3641- scf: Setup of Coulomb evaluator failed
-3640- type_coulomb_setupBoundaryConditions: Could not setup numerical thresholds
-3639- type_latticepoint_update: Could not generate lattice points
-3638- xtb_calculator_singlepoint: Electronic structure method terminated
-3637- scf: Setup of Coulomb evaluator failed
-3636- type_coulomb_setupBoundaryConditions: Could not setup numerical thresholds
-3635- type_latticepoint_update: Could not generate lattice points
-3634- xtb_calculator_singlepoint: Electronic structure method terminated
-3633- scf: Setup of Coulomb evaluator failed
-3632- type_coulomb_setupBoundaryConditions: Could not setup numerical thresholds
-3631- type_latticepoint_update: Could not generate lattice points
-3630- xtb_calculator_singlepoint: Electronic structure method terminated
-3629- scf: Setup of Coulomb evaluator failed
-3628- type_coulomb_setupBoundaryConditions: Could not setup numerical thresholds
-3627- type_latticepoint_update: Could not generate lattice points
-3626- xtb_calculator_singlepoint: Electronic structure method terminated
-3625- scf: Setup of Coulomb evaluator failed
-3624- type_coulomb_setupBoundaryConditions: Could not setup numerical thresholds
-3623- type_latticepoint_update: Could not generate lattice points
-3622- xtb_calculator_singlepoint: Electronic structure method terminated
-3621- scf: Setup of Coulomb evaluator failed
-3620- type_coulomb_setupBoundaryConditions: Could not setup numerical thresholds
-3619- type_latticepoint_update: Could not generate lattice points
-3618- xtb_calculator_singlepoint: Electronic structure method terminated
-3617- scf: Setup of Coulomb evaluator failed
-3616- type_coulomb_setupBoundaryConditions: Could not setup numerical thresholds
-3615- type_latticepoint_update: Could not generate lattice points
-3614- xtb_calculator_singlepoint: Electronic structure method terminated
-3613- scf: Setup of Coulomb evaluator failed
-3612- type_coulomb_setupBoundaryConditions: Could not setup numerical thresholds
-3611- type_latticepoint_update: Could not generate lattice points
-3610- xtb_calculator_singlepoint: Electronic structure method terminated
-3609- scf: Setup of Coulomb evaluator failed
-3608- type_coulomb_setupBoundaryConditions: Could not setup numerical thresholds
-3607- type_latticepoint_update: Could not generate lattice points
-3606- xtb_calculator_singlepoint: Electronic structure method terminated
-3605- scf: Setup of Coulomb evaluator failed
-3604- type_coulomb_setupBoundaryConditions: Could not setup numerical thresholds
-3603- type_latticepoint_update: Could not generate lattice points
-3602- xtb_calculator_singlepoint: Electronic structure method terminated
-3601- scf: Setup of Coulomb evaluator failed
-3600- type_coulomb_setupBoundaryConditions: Could not setup numerical thresholds
-3599- type_latticepoint_update: Could not generate lattice points
-3598- xtb_calculator_singlepoint: Electronic structure method terminated
-3597- scf: Setup of Coulomb evaluator failed
-3596- type_coulomb_setupBoundaryConditions: Could not setup numerical thresholds
-3595- type_latticepoint_update: Could not generate lattice points
-3594- xtb_calculator_singlepoint: Electronic structure method terminated
-3593- scf: Setup of Coulomb evaluator failed
-3592- type_coulomb_setupBoundaryConditions: Could not setup numerical thresholds
-3591- type_latticepoint_update: Could not generate lattice points
-3590- xtb_calculator_singlepoint: Electronic structure method terminated
-3589- scf: Setup of Coulomb evaluator failed
-3588- type_coulomb_setupBoundaryConditions: Could not setup numerical thresholds
-3587- type_latticepoint_update: Could not generate lattice points
-3586- xtb_calculator_singlepoint: Electronic structure method terminated
-3585- scf: Setup of Coulomb evaluator failed
-3584- type_coulomb_setupBoundaryConditions: Could not setup numerical thresholds
-3583- type_latticepoint_update: Could not generate lattice points
-3582- xtb_calculator_singlepoint: Electronic structure method terminated
-3581- scf: Setup of Coulomb evaluator failed
-3580- type_coulomb_setupBoundaryConditions: Could not setup numerical thresholds
-3579- type_latticepoint_update: Could not generate lattice points
-3578- xtb_calculator_singlepoint: Electronic structure method terminated
-3577- scf: Setup of Coulomb evaluator failed
-3576- type_coulomb_setupBoundaryConditions: Could not setup numerical thresholds
-3575- type_latticepoint_update: Could not generate lattice points
-3574- xtb_calculator_singlepoint: Electronic structure method terminated
-3573- scf: Setup of Coulomb evaluator failed
-3572- type_coulomb_setupBoundaryConditions: Could not setup numerical thresholds
-3571- type_latticepoint_update: Could not generate lattice points
-3570- xtb_calculator_singlepoint: Electronic structure method terminated
-3569- scf: Setup of Coulomb evaluator failed
-3568- type_coulomb_setupBoundaryConditions: Could not setup numerical thresholds
-3567- type_latticepoint_update: Could not generate lattice points
-3566- xtb_calculator_singlepoint: Electronic structure method terminated
-3565- scf: Setup of Coulomb evaluator failed
-3564- type_coulomb_setupBoundaryConditions: Could not setup numerical thresholds
-3563- type_latticepoint_update: Could not generate lattice points
-3562- xtb_calculator_singlepoint: Electronic structure method terminated
-3561- scf: Setup of Coulomb evaluator failed
-3560- type_coulomb_setupBoundaryConditions: Could not setup numerical thresholds
-3559- type_latticepoint_update: Could not generate lattice points
-3558- xtb_calculator_singlepoint: Electronic structure method terminated
-3557- scf: Setup of Coulomb evaluator failed
-3556- type_coulomb_setupBoundaryConditions: Could not setup numerical thresholds
-3555- type_latticepoint_update: Could not generate lattice points
-3554- xtb_calculator_singlepoint: Electronic structure method terminated
-3553- scf: Setup of Coulomb evaluator failed
-3552- type_coulomb_setupBoundaryConditions: Could not setup numerical thresholds
-3551- type_latticepoint_update: Could not generate lattice points
-3550- xtb_calculator_singlepoint: Electronic structure method terminated
-3549- scf: Setup of Coulomb evaluator failed
-3548- type_coulomb_setupBoundaryConditions: Could not setup numerical thresholds
-3547- type_latticepoint_update: Could not generate lattice points
-3546- xtb_calculator_singlepoint: Electronic structure method terminated
-3545- scf: Setup of Coulomb evaluator failed
-3544- type_coulomb_setupBoundaryConditions: Could not setup numerical thresholds
-3543- type_latticepoint_update: Could not generate lattice points
-3542- xtb_calculator_singlepoint: Electronic structure method terminated
-3541- scf: Setup of Coulomb evaluator failed
-3540- type_coulomb_setupBoundaryConditions: Could not setup numerical thresholds
-3539- type_latticepoint_update: Could not generate lattice points
-3538- xtb_calculator_singlepoint: Electronic structure method terminated
-3537- scf: Setup of Coulomb evaluator failed
-3536- type_coulomb_setupBoundaryConditions: Could not setup numerical thresholds
-3535- type_latticepoint_update: Could not generate lattice points
-3534- xtb_calculator_singlepoint: Electronic structure method terminated
-3533- scf: Setup of Coulomb evaluator failed
-3532- type_coulomb_setupBoundaryConditions: Could not setup numerical thresholds
-3531- type_latticepoint_update: Could not generate lattice points
-3530- xtb_calculator_singlepoint: Electronic structure method terminated
-3529- scf: Setup of Coulomb evaluator failed
-3528- type_coulomb_setupBoundaryConditions: Could not setup numerical thresholds
-3527- type_latticepoint_update: Could not generate lattice points
-3526- xtb_calculator_singlepoint: Electronic structure method terminated
-3525- scf: Setup of Coulomb evaluator failed
-3524- type_coulomb_setupBoundaryConditions: Could not setup numerical thresholds
-3523- type_latticepoint_update: Could not generate lattice points
-3522- xtb_calculator_singlepoint: Electronic structure method terminated
-3521- scf: Setup of Coulomb evaluator failed
-3520- type_coulomb_setupBoundaryConditions: Could not setup numerical thresholds
-3519- type_latticepoint_update: Could not generate lattice points
-3518- xtb_calculator_singlepoint: Electronic structure method terminated
-3517- scf: Setup of Coulomb evaluator failed
-3516- type_coulomb_setupBoundaryConditions: Could not setup numerical thresholds
-3515- type_latticepoint_update: Could not generate lattice points
-3514- xtb_calculator_singlepoint: Electronic structure method terminated
-3513- scf: Setup of Coulomb evaluator failed
-3512- type_coulomb_setupBoundaryConditions: Could not setup numerical thresholds
-3511- type_latticepoint_update: Could not generate lattice points
-3510- xtb_calculator_singlepoint: Electronic structure method terminated
-3509- scf: Setup of Coulomb evaluator failed
-3508- type_coulomb_setupBoundaryConditions: Could not setup numerical thresholds
-3507- type_latticepoint_update: Could not generate lattice points
-3506- xtb_calculator_singlepoint: Electronic structure method terminated
-3505- scf: Setup of Coulomb evaluator failed
-3504- type_coulomb_setupBoundaryConditions: Could not setup numerical thresholds
-3503- type_latticepoint_update: Could not generate lattice points
-3502- xtb_calculator_singlepoint: Electronic structure method terminated
-3501- scf: Setup of Coulomb evaluator failed
-3500- type_coulomb_setupBoundaryConditions: Could not setup numerical thresholds
-3499- type_latticepoint_update: Could not generate lattice points
-3498- xtb_calculator_singlepoint: Electronic structure method terminated
-3497- scf: Setup of Coulomb evaluator failed
-3496- type_coulomb_setupBoundaryConditions: Could not setup numerical thresholds
-3495- type_latticepoint_update: Could not generate lattice points
-3494- xtb_calculator_singlepoint: Electronic structure method terminated
-3493- scf: Setup of Coulomb evaluator failed
-3492- type_coulomb_setupBoundaryConditions: Could not setup numerical thresholds
-3491- type_latticepoint_update: Could not generate lattice points
-3490- xtb_calculator_singlepoint: Electronic structure method terminated
-3489- scf: Setup of Coulomb evaluator failed
-3488- type_coulomb_setupBoundaryConditions: Could not setup numerical thresholds
-3487- type_latticepoint_update: Could not generate lattice points
-3486- xtb_calculator_singlepoint: Electronic structure method terminated
-3485- scf: Setup of Coulomb evaluator failed
-3484- type_coulomb_setupBoundaryConditions: Could not setup numerical thresholds
-3483- type_latticepoint_update: Could not generate lattice points
-3482- xtb_calculator_singlepoint: Electronic structure method terminated
-3481- scf: Setup of Coulomb evaluator failed
-3480- type_coulomb_setupBoundaryConditions: Could not setup numerical thresholds
-3479- type_latticepoint_update: Could not generate lattice points
-3478- xtb_calculator_singlepoint: Electronic structure method terminated
-3477- scf: Setup of Coulomb evaluator failed
-3476- type_coulomb_setupBoundaryConditions: Could not setup numerical thresholds
-3475- type_latticepoint_update: Could not generate lattice points
-3474- xtb_calculator_singlepoint: Electronic structure method terminated
-3473- scf: Setup of Coulomb evaluator failed
-3472- type_coulomb_setupBoundaryConditions: Could not setup numerical thresholds
-3471- type_latticepoint_update: Could not generate lattice points
-3470- xtb_calculator_singlepoint: Electronic structure method terminated
-3469- scf: Setup of Coulomb evaluator failed
-3468- type_coulomb_setupBoundaryConditions: Could not setup numerical thresholds
-3467- type_latticepoint_update: Could not generate lattice points
-3466- xtb_calculator_singlepoint: Electronic structure method terminated
-3465- scf: Setup of Coulomb evaluator failed
-3464- type_coulomb_setupBoundaryConditions: Could not setup numerical thresholds
-3463- type_latticepoint_update: Could not generate lattice points
-3462- xtb_calculator_singlepoint: Electronic structure method terminated
-3461- scf: Setup of Coulomb evaluator failed
-3460- type_coulomb_setupBoundaryConditions: Could not setup numerical thresholds
-3459- type_latticepoint_update: Could not generate lattice points
-3458- xtb_calculator_singlepoint: Electronic structure method terminated
-3457- scf: Setup of Coulomb evaluator failed
-3456- type_coulomb_setupBoundaryConditions: Could not setup numerical thresholds
-3455- type_latticepoint_update: Could not generate lattice points
-3454- xtb_calculator_singlepoint: Electronic structure method terminated
-3453- scf: Setup of Coulomb evaluator failed
-3452- type_coulomb_setupBoundaryConditions: Could not setup numerical thresholds
-3451- type_latticepoint_update: Could not generate lattice points
-3450- xtb_calculator_singlepoint: Electronic structure method terminated
-3449- scf: Setup of Coulomb evaluator failed
-3448- type_coulomb_setupBoundaryConditions: Could not setup numerical thresholds
-3447- type_latticepoint_update: Could not generate lattice points
-3446- xtb_calculator_singlepoint: Electronic structure method terminated
-3445- scf: Setup of Coulomb evaluator failed
-3444- type_coulomb_setupBoundaryConditions: Could not setup numerical thresholds
-3443- type_latticepoint_update: Could not generate lattice points
-3442- xtb_calculator_singlepoint: Electronic structure method terminated
-3441- scf: Setup of Coulomb evaluator failed
-3440- type_coulomb_setupBoundaryConditions: Could not setup numerical thresholds
-3439- type_latticepoint_update: Could not generate lattice points
-3438- xtb_calculator_singlepoint: Electronic structure method terminated
-3437- scf: Setup of Coulomb evaluator failed
-3436- type_coulomb_setupBoundaryConditions: Could not setup numerical thresholds
-3435- type_latticepoint_update: Could not generate lattice points
-3434- xtb_calculator_singlepoint: Electronic structure method terminated
-3433- scf: Setup of Coulomb evaluator failed
-3432- type_coulomb_setupBoundaryConditions: Could not setup numerical thresholds
-3431- type_latticepoint_update: Could not generate lattice points
-3430- xtb_calculator_singlepoint: Electronic structure method terminated
-3429- scf: Setup of Coulomb evaluator failed
-3428- type_coulomb_setupBoundaryConditions: Could not setup numerical thresholds
-3427- type_latticepoint_update: Could not generate lattice points
-3426- xtb_calculator_singlepoint: Electronic structure method terminated
-3425- scf: Setup of Coulomb evaluator failed
-3424- type_coulomb_setupBoundaryConditions: Could not setup numerical thresholds
-3423- type_latticepoint_update: Could not generate lattice points
-3422- xtb_calculator_singlepoint: Electronic structure method terminated
-3421- scf: Setup of Coulomb evaluator failed
-3420- type_coulomb_setupBoundaryConditions: Could not setup numerical thresholds
-3419- type_latticepoint_update: Could not generate lattice points
-3418- xtb_calculator_singlepoint: Electronic structure method terminated
-3417- scf: Setup of Coulomb evaluator failed
-3416- type_coulomb_setupBoundaryConditions: Could not setup numerical thresholds
-3415- type_latticepoint_update: Could not generate lattice points
-3414- xtb_calculator_singlepoint: Electronic structure method terminated
-3413- scf: Setup of Coulomb evaluator failed
-3412- type_coulomb_setupBoundaryConditions: Could not setup numerical thresholds
-3411- type_latticepoint_update: Could not generate lattice points
-3410- xtb_calculator_singlepoint: Electronic structure method terminated
-3409- scf: Setup of Coulomb evaluator failed
-3408- type_coulomb_setupBoundaryConditions: Could not setup numerical thresholds
-3407- type_latticepoint_update: Could not generate lattice points
-3406- xtb_calculator_singlepoint: Electronic structure method terminated
-3405- scf: Setup of Coulomb evaluator failed
-3404- type_coulomb_setupBoundaryConditions: Could not setup numerical thresholds
-3403- type_latticepoint_update: Could not generate lattice points
-3402- xtb_calculator_singlepoint: Electronic structure method terminated
-3401- scf: Setup of Coulomb evaluator failed
-3400- type_coulomb_setupBoundaryConditions: Could not setup numerical thresholds
-3399- type_latticepoint_update: Could not generate lattice points
-3398- xtb_calculator_singlepoint: Electronic structure method terminated
-3397- scf: Setup of Coulomb evaluator failed
-3396- type_coulomb_setupBoundaryConditions: Could not setup numerical thresholds
-3395- type_latticepoint_update: Could not generate lattice points
-3394- xtb_calculator_singlepoint: Electronic structure method terminated
-3393- scf: Setup of Coulomb evaluator failed
-3392- type_coulomb_setupBoundaryConditions: Could not setup numerical thresholds
-3391- type_latticepoint_update: Could not generate lattice points
-3390- xtb_calculator_singlepoint: Electronic structure method terminated
-3389- scf: Setup of Coulomb evaluator failed
-3388- type_coulomb_setupBoundaryConditions: Could not setup numerical thresholds
-3387- type_latticepoint_update: Could not generate lattice points
-3386- xtb_calculator_singlepoint: Electronic structure method terminated
-3385- scf: Setup of Coulomb evaluator failed
-3384- type_coulomb_setupBoundaryConditions: Could not setup numerical thresholds
-3383- type_latticepoint_update: Could not generate lattice points
-3382- xtb_calculator_singlepoint: Electronic structure method terminated
-3381- scf: Setup of Coulomb evaluator failed
-3380- type_coulomb_setupBoundaryConditions: Could not setup numerical thresholds
-3379- type_latticepoint_update: Could not generate lattice points
-3378- xtb_calculator_singlepoint: Electronic structure method terminated
-3377- scf: Setup of Coulomb evaluator failed
-3376- type_coulomb_setupBoundaryConditions: Could not setup numerical thresholds
-3375- type_latticepoint_update: Could not generate lattice points
-3374- xtb_calculator_singlepoint: Electronic structure method terminated
-3373- scf: Setup of Coulomb evaluator failed
-3372- type_coulomb_setupBoundaryConditions: Could not setup numerical thresholds
-3371- type_latticepoint_update: Could not generate lattice points
-3370- xtb_calculator_singlepoint: Electronic structure method terminated
-3369- scf: Setup of Coulomb evaluator failed
-3368- type_coulomb_setupBoundaryConditions: Could not setup numerical thresholds
-3367- type_latticepoint_update: Could not generate lattice points
-3366- xtb_calculator_singlepoint: Electronic structure method terminated
-3365- scf: Setup of Coulomb evaluator failed
-3364- type_coulomb_setupBoundaryConditions: Could not setup numerical thresholds
-3363- type_latticepoint_update: Could not generate lattice points
-3362- xtb_calculator_singlepoint: Electronic structure method terminated
-3361- scf: Setup of Coulomb evaluator failed
-3360- type_coulomb_setupBoundaryConditions: Could not setup numerical thresholds
-3359- type_latticepoint_update: Could not generate lattice points
-3358- xtb_calculator_singlepoint: Electronic structure method terminated
-3357- scf: Setup of Coulomb evaluator failed
-3356- type_coulomb_setupBoundaryConditions: Could not setup numerical thresholds
-3355- type_latticepoint_update: Could not generate lattice points
-3354- xtb_calculator_singlepoint: Electronic structure method terminated
-3353- scf: Setup of Coulomb evaluator failed
-3352- type_coulomb_setupBoundaryConditions: Could not setup numerical thresholds
-3351- type_latticepoint_update: Could not generate lattice points
-3350- xtb_calculator_singlepoint: Electronic structure method terminated
-3349- scf: Setup of Coulomb evaluator failed
-3348- type_coulomb_setupBoundaryConditions: Could not setup numerical thresholds
-3347- type_latticepoint_update: Could not generate lattice points
-3346- xtb_calculator_singlepoint: Electronic structure method terminated
-3345- scf: Setup of Coulomb evaluator failed
-3344- type_coulomb_setupBoundaryConditions: Could not setup numerical thresholds
-3343- type_latticepoint_update: Could not generate lattice points
-3342- xtb_calculator_singlepoint: Electronic structure method terminated
-3341- scf: Setup of Coulomb evaluator failed
-3340- type_coulomb_setupBoundaryConditions: Could not setup numerical thresholds
-3339- type_latticepoint_update: Could not generate lattice points
-3338- xtb_calculator_singlepoint: Electronic structure method terminated
-3337- scf: Setup of Coulomb evaluator failed
-3336- type_coulomb_setupBoundaryConditions: Could not setup numerical thresholds
-3335- type_latticepoint_update: Could not generate lattice points
-3334- xtb_calculator_singlepoint: Electronic structure method terminated
-3333- scf: Setup of Coulomb evaluator failed
-3332- type_coulomb_setupBoundaryConditions: Could not setup numerical thresholds
-3331- type_latticepoint_update: Could not generate lattice points
-3330- xtb_calculator_singlepoint: Electronic structure method terminated
-3329- scf: Setup of Coulomb evaluator failed
-3328- type_coulomb_setupBoundaryConditions: Could not setup numerical thresholds
-3327- type_latticepoint_update: Could not generate lattice points
-3326- xtb_calculator_singlepoint: Electronic structure method terminated
-3325- scf: Setup of Coulomb evaluator failed
-3324- type_coulomb_setupBoundaryConditions: Could not setup numerical thresholds
-3323- type_latticepoint_update: Could not generate lattice points
-3322- xtb_calculator_singlepoint: Electronic structure method terminated
-3321- scf: Setup of Coulomb evaluator failed
-3320- type_coulomb_setupBoundaryConditions: Could not setup numerical thresholds
-3319- type_latticepoint_update: Could not generate lattice points
-3318- xtb_calculator_singlepoint: Electronic structure method terminated
-3317- scf: Setup of Coulomb evaluator failed
-3316- type_coulomb_setupBoundaryConditions: Could not setup numerical thresholds
-3315- type_latticepoint_update: Could not generate lattice points
-3314- xtb_calculator_singlepoint: Electronic structure method terminated
-3313- scf: Setup of Coulomb evaluator failed
-3312- type_coulomb_setupBoundaryConditions: Could not setup numerical thresholds
-3311- type_latticepoint_update: Could not generate lattice points
-3310- xtb_calculator_singlepoint: Electronic structure method terminated
-3309- scf: Setup of Coulomb evaluator failed
-3308- type_coulomb_setupBoundaryConditions: Could not setup numerical thresholds
-3307- type_latticepoint_update: Could not generate lattice points
-3306- xtb_calculator_singlepoint: Electronic structure method terminated
-3305- scf: Setup of Coulomb evaluator failed
-3304- type_coulomb_setupBoundaryConditions: Could not setup numerical thresholds
-3303- type_latticepoint_update: Could not generate lattice points
-3302- xtb_calculator_singlepoint: Electronic structure method terminated
-3301- scf: Setup of Coulomb evaluator failed
-3300- type_coulomb_setupBoundaryConditions: Could not setup numerical thresholds
-3299- type_latticepoint_update: Could not generate lattice points
-3298- xtb_calculator_singlepoint: Electronic structure method terminated
-3297- scf: Setup of Coulomb evaluator failed
-3296- type_coulomb_setupBoundaryConditions: Could not setup numerical thresholds
-3295- type_latticepoint_update: Could not generate lattice points
-3294- xtb_calculator_singlepoint: Electronic structure method terminated
-3293- scf: Setup of Coulomb evaluator failed
-3292- type_coulomb_setupBoundaryConditions: Could not setup numerical thresholds
-3291- type_latticepoint_update: Could not generate lattice points
-3290- xtb_calculator_singlepoint: Electronic structure method terminated
-3289- scf: Setup of Coulomb evaluator failed
-3288- type_coulomb_setupBoundaryConditions: Could not setup numerical thresholds
-3287- type_latticepoint_update: Could not generate lattice points
-3286- xtb_calculator_singlepoint: Electronic structure method terminated
-3285- scf: Setup of Coulomb evaluator failed
-3284- type_coulomb_setupBoundaryConditions: Could not setup numerical thresholds
-3283- type_latticepoint_update: Could not generate lattice points
-3282- xtb_calculator_singlepoint: Electronic structure method terminated
-3281- scf: Setup of Coulomb evaluator failed
-3280- type_coulomb_setupBoundaryConditions: Could not setup numerical thresholds
-3279- type_latticepoint_update: Could not generate lattice points
-3278- xtb_calculator_singlepoint: Electronic structure method terminated
-3277- scf: Setup of Coulomb evaluator failed
-3276- type_coulomb_setupBoundaryConditions: Could not setup numerical thresholds
-3275- type_latticepoint_update: Could not generate lattice points
-3274- xtb_calculator_singlepoint: Electronic structure method terminated
-3273- scf: Setup of Coulomb evaluator failed
-3272- type_coulomb_setupBoundaryConditions: Could not setup numerical thresholds
-3271- type_latticepoint_update: Could not generate lattice points
-3270- xtb_calculator_singlepoint: Electronic structure method terminated
-3269- scf: Setup of Coulomb evaluator failed
-3268- type_coulomb_setupBoundaryConditions: Could not setup numerical thresholds
-3267- type_latticepoint_update: Could not generate lattice points
-3266- xtb_calculator_singlepoint: Electronic structure method terminated
-3265- scf: Setup of Coulomb evaluator failed
-3264- type_coulomb_setupBoundaryConditions: Could not setup numerical thresholds
-3263- type_latticepoint_update: Could not generate lattice points
-3262- xtb_calculator_singlepoint: Electronic structure method terminated
-3261- scf: Setup of Coulomb evaluator failed
-3260- type_coulomb_setupBoundaryConditions: Could not setup numerical thresholds
-3259- type_latticepoint_update: Could not generate lattice points
-3258- xtb_calculator_singlepoint: Electronic structure method terminated
-3257- scf: Setup of Coulomb evaluator failed
-3256- type_coulomb_setupBoundaryConditions: Could not setup numerical thresholds
-3255- type_latticepoint_update: Could not generate lattice points
-3254- xtb_calculator_singlepoint: Electronic structure method terminated
-3253- scf: Setup of Coulomb evaluator failed
-3252- type_coulomb_setupBoundaryConditions: Could not setup numerical thresholds
-3251- type_latticepoint_update: Could not generate lattice points
-3250- xtb_calculator_singlepoint: Electronic structure method terminated
-3249- scf: Setup of Coulomb evaluator failed
-3248- type_coulomb_setupBoundaryConditions: Could not setup numerical thresholds
-3247- type_latticepoint_update: Could not generate lattice points
-3246- xtb_calculator_singlepoint: Electronic structure method terminated
-3245- scf: Setup of Coulomb evaluator failed
-3244- type_coulomb_setupBoundaryConditions: Could not setup numerical thresholds
-3243- type_latticepoint_update: Could not generate lattice points
-3242- xtb_calculator_singlepoint: Electronic structure method terminated
-3241- scf: Setup of Coulomb evaluator failed
-3240- type_coulomb_setupBoundaryConditions: Could not setup numerical thresholds
-3239- type_latticepoint_update: Could not generate lattice points
-3238- xtb_calculator_singlepoint: Electronic structure method terminated
-3237- scf: Setup of Coulomb evaluator failed
-3236- type_coulomb_setupBoundaryConditions: Could not setup numerical thresholds
-3235- type_latticepoint_update: Could not generate lattice points
-3234- xtb_calculator_singlepoint: Electronic structure method terminated
-3233- scf: Setup of Coulomb evaluator failed
-3232- type_coulomb_setupBoundaryConditions: Could not setup numerical thresholds
-3231- type_latticepoint_update: Could not generate lattice points
-3230- xtb_calculator_singlepoint: Electronic structure method terminated
-3229- scf: Setup of Coulomb evaluator failed
-3228- type_coulomb_setupBoundaryConditions: Could not setup numerical thresholds
-3227- type_latticepoint_update: Could not generate lattice points
-3226- xtb_calculator_singlepoint: Electronic structure method terminated
-3225- scf: Setup of Coulomb evaluator failed
-3224- type_coulomb_setupBoundaryConditions: Could not setup numerical thresholds
-3223- type_latticepoint_update: Could not generate lattice points
-3222- xtb_calculator_singlepoint: Electronic structure method terminated
-3221- scf: Setup of Coulomb evaluator failed
-3220- type_coulomb_setupBoundaryConditions: Could not setup numerical thresholds
-3219- type_latticepoint_update: Could not generate lattice points
-3218- xtb_calculator_singlepoint: Electronic structure method terminated
-3217- scf: Setup of Coulomb evaluator failed
-3216- type_coulomb_setupBoundaryConditions: Could not setup numerical thresholds
-3215- type_latticepoint_update: Could not generate lattice points
-3214- xtb_calculator_singlepoint: Electronic structure method terminated
-3213- scf: Setup of Coulomb evaluator failed
-3212- type_coulomb_setupBoundaryConditions: Could not setup numerical thresholds
-3211- type_latticepoint_update: Could not generate lattice points
-3210- xtb_calculator_singlepoint: Electronic structure method terminated
-3209- scf: Setup of Coulomb evaluator failed
-3208- type_coulomb_setupBoundaryConditions: Could not setup numerical thresholds
-3207- type_latticepoint_update: Could not generate lattice points
-3206- xtb_calculator_singlepoint: Electronic structure method terminated
-3205- scf: Setup of Coulomb evaluator failed
-3204- type_coulomb_setupBoundaryConditions: Could not setup numerical thresholds
-3203- type_latticepoint_update: Could not generate lattice points
-3202- xtb_calculator_singlepoint: Electronic structure method terminated
-3201- scf: Setup of Coulomb evaluator failed
-3200- type_coulomb_setupBoundaryConditions: Could not setup numerical thresholds
-3199- type_latticepoint_update: Could not generate lattice points
-3198- xtb_calculator_singlepoint: Electronic structure method terminated
-3197- scf: Setup of Coulomb evaluator failed
-3196- type_coulomb_setupBoundaryConditions: Could not setup numerical thresholds
-3195- type_latticepoint_update: Could not generate lattice points
-3194- xtb_calculator_singlepoint: Electronic structure method terminated
-3193- scf: Setup of Coulomb evaluator failed
-3192- type_coulomb_setupBoundaryConditions: Could not setup numerical thresholds
-3191- type_latticepoint_update: Could not generate lattice points
-3190- xtb_calculator_singlepoint: Electronic structure method terminated
-3189- scf: Setup of Coulomb evaluator failed
-3188- type_coulomb_setupBoundaryConditions: Could not setup numerical thresholds
-3187- type_latticepoint_update: Could not generate lattice points
-3186- xtb_calculator_singlepoint: Electronic structure method terminated
-3185- scf: Setup of Coulomb evaluator failed
-3184- type_coulomb_setupBoundaryConditions: Could not setup numerical thresholds
-3183- type_latticepoint_update: Could not generate lattice points
-3182- xtb_calculator_singlepoint: Electronic structure method terminated
-3181- scf: Setup of Coulomb evaluator failed
-3180- type_coulomb_setupBoundaryConditions: Could not setup numerical thresholds
-3179- type_latticepoint_update: Could not generate lattice points
-3178- xtb_calculator_singlepoint: Electronic structure method terminated
-3177- scf: Setup of Coulomb evaluator failed
-3176- type_coulomb_setupBoundaryConditions: Could not setup numerical thresholds
-3175- type_latticepoint_update: Could not generate lattice points
-3174- xtb_calculator_singlepoint: Electronic structure method terminated
-3173- scf: Setup of Coulomb evaluator failed
-3172- type_coulomb_setupBoundaryConditions: Could not setup numerical thresholds
-3171- type_latticepoint_update: Could not generate lattice points
-3170- xtb_calculator_singlepoint: Electronic structure method terminated
-3169- scf: Setup of Coulomb evaluator failed
-3168- type_coulomb_setupBoundaryConditions: Could not setup numerical thresholds
-3167- type_latticepoint_update: Could not generate lattice points
-3166- xtb_calculator_singlepoint: Electronic structure method terminated
-3165- scf: Setup of Coulomb evaluator failed
-3164- type_coulomb_setupBoundaryConditions: Could not setup numerical thresholds
-3163- type_latticepoint_update: Could not generate lattice points
-3162- xtb_calculator_singlepoint: Electronic structure method terminated
-3161- scf: Setup of Coulomb evaluator failed
-3160- type_coulomb_setupBoundaryConditions: Could not setup numerical thresholds
-3159- type_latticepoint_update: Could not generate lattice points
-3158- xtb_calculator_singlepoint: Electronic structure method terminated
-3157- scf: Setup of Coulomb evaluator failed
-3156- type_coulomb_setupBoundaryConditions: Could not setup numerical thresholds
-3155- type_latticepoint_update: Could not generate lattice points
-3154- xtb_calculator_singlepoint: Electronic structure method terminated
-3153- scf: Setup of Coulomb evaluator failed
-3152- type_coulomb_setupBoundaryConditions: Could not setup numerical thresholds
-3151- type_latticepoint_update: Could not generate lattice points
-3150- xtb_calculator_singlepoint: Electronic structure method terminated
-3149- scf: Setup of Coulomb evaluator failed
-3148- type_coulomb_setupBoundaryConditions: Could not setup numerical thresholds
-3147- type_latticepoint_update: Could not generate lattice points
-3146- xtb_calculator_singlepoint: Electronic structure method terminated
-3145- scf: Setup of Coulomb evaluator failed
-3144- type_coulomb_setupBoundaryConditions: Could not setup numerical thresholds
-3143- type_latticepoint_update: Could not generate lattice points
-3142- xtb_calculator_singlepoint: Electronic structure method terminated
-3141- scf: Setup of Coulomb evaluator failed
-3140- type_coulomb_setupBoundaryConditions: Could not setup numerical thresholds
-3139- type_latticepoint_update: Could not generate lattice points
-3138- xtb_calculator_singlepoint: Electronic structure method terminated
-3137- scf: Setup of Coulomb evaluator failed
-3136- type_coulomb_setupBoundaryConditions: Could not setup numerical thresholds
-3135- type_latticepoint_update: Could not generate lattice points
-3134- xtb_calculator_singlepoint: Electronic structure method terminated
-3133- scf: Setup of Coulomb evaluator failed
-3132- type_coulomb_setupBoundaryConditions: Could not setup numerical thresholds
-3131- type_latticepoint_update: Could not generate lattice points
-3130- xtb_calculator_singlepoint: Electronic structure method terminated
-3129- scf: Setup of Coulomb evaluator failed
-3128- type_coulomb_setupBoundaryConditions: Could not setup numerical thresholds
-3127- type_latticepoint_update: Could not generate lattice points
-3126- xtb_calculator_singlepoint: Electronic structure method terminated
-3125- scf: Setup of Coulomb evaluator failed
-3124- type_coulomb_setupBoundaryConditions: Could not setup numerical thresholds
-3123- type_latticepoint_update: Could not generate lattice points
-3122- xtb_calculator_singlepoint: Electronic structure method terminated
-3121- scf: Setup of Coulomb evaluator failed
-3120- type_coulomb_setupBoundaryConditions: Could not setup numerical thresholds
-3119- type_latticepoint_update: Could not generate lattice points
-3118- xtb_calculator_singlepoint: Electronic structure method terminated
-3117- scf: Setup of Coulomb evaluator failed
-3116- type_coulomb_setupBoundaryConditions: Could not setup numerical thresholds
-3115- type_latticepoint_update: Could not generate lattice points
-3114- xtb_calculator_singlepoint: Electronic structure method terminated
-3113- scf: Setup of Coulomb evaluator failed
-3112- type_coulomb_setupBoundaryConditions: Could not setup numerical thresholds
-3111- type_latticepoint_update: Could not generate lattice points
-3110- xtb_calculator_singlepoint: Electronic structure method terminated
-3109- scf: Setup of Coulomb evaluator failed
-3108- type_coulomb_setupBoundaryConditions: Could not setup numerical thresholds
-3107- type_latticepoint_update: Could not generate lattice points
-3106- xtb_calculator_singlepoint: Electronic structure method terminated
-3105- scf: Setup of Coulomb evaluator failed
-3104- type_coulomb_setupBoundaryConditions: Could not setup numerical thresholds
-3103- type_latticepoint_update: Could not generate lattice points
-3102- xtb_calculator_singlepoint: Electronic structure method terminated
-3101- scf: Setup of Coulomb evaluator failed
-3100- type_coulomb_setupBoundaryConditions: Could not setup numerical thresholds
-3099- type_latticepoint_update: Could not generate lattice points
-3098- xtb_calculator_singlepoint: Electronic structure method terminated
-3097- scf: Setup of Coulomb evaluator failed
-3096- type_coulomb_setupBoundaryConditions: Could not setup numerical thresholds
-3095- type_latticepoint_update: Could not generate lattice points
-3094- xtb_calculator_singlepoint: Electronic structure method terminated
-3093- scf: Setup of Coulomb evaluator failed
-3092- type_coulomb_setupBoundaryConditions: Could not setup numerical thresholds
-3091- type_latticepoint_update: Could not generate lattice points
-3090- xtb_calculator_singlepoint: Electronic structure method terminated
-3089- scf: Setup of Coulomb evaluator failed
-3088- type_coulomb_setupBoundaryConditions: Could not setup numerical thresholds
-3087- type_latticepoint_update: Could not generate lattice points
-3086- xtb_calculator_singlepoint: Electronic structure method terminated
-3085- scf: Setup of Coulomb evaluator failed
-3084- type_coulomb_setupBoundaryConditions: Could not setup numerical thresholds
-3083- type_latticepoint_update: Could not generate lattice points
-3082- xtb_calculator_singlepoint: Electronic structure method terminated
-3081- scf: Setup of Coulomb evaluator failed
-3080- type_coulomb_setupBoundaryConditions: Could not setup numerical thresholds
-3079- type_latticepoint_update: Could not generate lattice points
-3078- xtb_calculator_singlepoint: Electronic structure method terminated
-3077- scf: Setup of Coulomb evaluator failed
-3076- type_coulomb_setupBoundaryConditions: Could not setup numerical thresholds
-3075- type_latticepoint_update: Could not generate lattice points
-3074- xtb_calculator_singlepoint: Electronic structure method terminated
-3073- scf: Setup of Coulomb evaluator failed
-3072- type_coulomb_setupBoundaryConditions: Could not setup numerical thresholds
-3071- type_latticepoint_update: Could not generate lattice points
-3070- xtb_calculator_singlepoint: Electronic structure method terminated
-3069- scf: Setup of Coulomb evaluator failed
-3068- type_coulomb_setupBoundaryConditions: Could not setup numerical thresholds
-3067- type_latticepoint_update: Could not generate lattice points
-3066- xtb_calculator_singlepoint: Electronic structure method terminated
-3065- scf: Setup of Coulomb evaluator failed
-3064- type_coulomb_setupBoundaryConditions: Could not setup numerical thresholds
-3063- type_latticepoint_update: Could not generate lattice points
-3062- xtb_calculator_singlepoint: Electronic structure method terminated
-3061- scf: Setup of Coulomb evaluator failed
-3060- type_coulomb_setupBoundaryConditions: Could not setup numerical thresholds
-3059- type_latticepoint_update: Could not generate lattice points
-3058- xtb_calculator_singlepoint: Electronic structure method terminated
-3057- scf: Setup of Coulomb evaluator failed
-3056- type_coulomb_setupBoundaryConditions: Could not setup numerical thresholds
-3055- type_latticepoint_update: Could not generate lattice points
-3054- xtb_calculator_singlepoint: Electronic structure method terminated
-3053- scf: Setup of Coulomb evaluator failed
-3052- type_coulomb_setupBoundaryConditions: Could not setup numerical thresholds
-3051- type_latticepoint_update: Could not generate lattice points
-3050- xtb_calculator_singlepoint: Electronic structure method terminated
-3049- scf: Setup of Coulomb evaluator failed
-3048- type_coulomb_setupBoundaryConditions: Could not setup numerical thresholds
-3047- type_latticepoint_update: Could not generate lattice points
-3046- xtb_calculator_singlepoint: Electronic structure method terminated
-3045- scf: Setup of Coulomb evaluator failed
-3044- type_coulomb_setupBoundaryConditions: Could not setup numerical thresholds
-3043- type_latticepoint_update: Could not generate lattice points
-3042- xtb_calculator_singlepoint: Electronic structure method terminated
-3041- scf: Setup of Coulomb evaluator failed
-3040- type_coulomb_setupBoundaryConditions: Could not setup numerical thresholds
-3039- type_latticepoint_update: Could not generate lattice points
-3038- xtb_calculator_singlepoint: Electronic structure method terminated
-3037- scf: Setup of Coulomb evaluator failed
-3036- type_coulomb_setupBoundaryConditions: Could not setup numerical thresholds
-3035- type_latticepoint_update: Could not generate lattice points
-3034- xtb_calculator_singlepoint: Electronic structure method terminated
-3033- scf: Setup of Coulomb evaluator failed
-3032- type_coulomb_setupBoundaryConditions: Could not setup numerical thresholds
-3031- type_latticepoint_update: Could not generate lattice points
-3030- xtb_calculator_singlepoint: Electronic structure method terminated
-3029- scf: Setup of Coulomb evaluator failed
-3028- type_coulomb_setupBoundaryConditions: Could not setup numerical thresholds
-3027- type_latticepoint_update: Could not generate lattice points
-3026- xtb_calculator_singlepoint: Electronic structure method terminated
-3025- scf: Setup of Coulomb evaluator failed
-3024- type_coulomb_setupBoundaryConditions: Could not setup numerical thresholds
-3023- type_latticepoint_update: Could not generate lattice points
-3022- xtb_calculator_singlepoint: Electronic structure method terminated
-3021- scf: Setup of Coulomb evaluator failed
-3020- type_coulomb_setupBoundaryConditions: Could not setup numerical thresholds
-3019- type_latticepoint_update: Could not generate lattice points
-3018- xtb_calculator_singlepoint: Electronic structure method terminated
-3017- scf: Setup of Coulomb evaluator failed
-3016- type_coulomb_setupBoundaryConditions: Could not setup numerical thresholds
-3015- type_latticepoint_update: Could not generate lattice points
-3014- xtb_calculator_singlepoint: Electronic structure method terminated
-3013- scf: Setup of Coulomb evaluator failed
-3012- type_coulomb_setupBoundaryConditions: Could not setup numerical thresholds
-3011- type_latticepoint_update: Could not generate lattice points
-3010- xtb_calculator_singlepoint: Electronic structure method terminated
-3009- scf: Setup of Coulomb evaluator failed
-3008- type_coulomb_setupBoundaryConditions: Could not setup numerical thresholds
-3007- type_latticepoint_update: Could not generate lattice points
-3006- xtb_calculator_singlepoint: Electronic structure method terminated
-3005- scf: Setup of Coulomb evaluator failed
-3004- type_coulomb_setupBoundaryConditions: Could not setup numerical thresholds
-3003- type_latticepoint_update: Could not generate lattice points
-3002- xtb_calculator_singlepoint: Electronic structure method terminated
-3001- scf: Setup of Coulomb evaluator failed
-3000- type_coulomb_setupBoundaryConditions: Could not setup numerical thresholds
-2999- type_latticepoint_update: Could not generate lattice points
-2998- xtb_calculator_singlepoint: Electronic structure method terminated
-2997- scf: Setup of Coulomb evaluator failed
-2996- type_coulomb_setupBoundaryConditions: Could not setup numerical thresholds
-2995- type_latticepoint_update: Could not generate lattice points
-2994- xtb_calculator_singlepoint: Electronic structure method terminated
-2993- scf: Setup of Coulomb evaluator failed
-2992- type_coulomb_setupBoundaryConditions: Could not setup numerical thresholds
-2991- type_latticepoint_update: Could not generate lattice points
-2990- xtb_calculator_singlepoint: Electronic structure method terminated
-2989- scf: Setup of Coulomb evaluator failed
-2988- type_coulomb_setupBoundaryConditions: Could not setup numerical thresholds
-2987- type_latticepoint_update: Could not generate lattice points
-2986- xtb_calculator_singlepoint: Electronic structure method terminated
-2985- scf: Setup of Coulomb evaluator failed
-2984- type_coulomb_setupBoundaryConditions: Could not setup numerical thresholds
-2983- type_latticepoint_update: Could not generate lattice points
-2982- xtb_calculator_singlepoint: Electronic structure method terminated
-2981- scf: Setup of Coulomb evaluator failed
-2980- type_coulomb_setupBoundaryConditions: Could not setup numerical thresholds
-2979- type_latticepoint_update: Could not generate lattice points
-2978- xtb_calculator_singlepoint: Electronic structure method terminated
-2977- scf: Setup of Coulomb evaluator failed
-2976- type_coulomb_setupBoundaryConditions: Could not setup numerical thresholds
-2975- type_latticepoint_update: Could not generate lattice points
-2974- xtb_calculator_singlepoint: Electronic structure method terminated
-2973- scf: Setup of Coulomb evaluator failed
-2972- type_coulomb_setupBoundaryConditions: Could not setup numerical thresholds
-2971- type_latticepoint_update: Could not generate lattice points
-2970- xtb_calculator_singlepoint: Electronic structure method terminated
-2969- scf: Setup of Coulomb evaluator failed
-2968- type_coulomb_setupBoundaryConditions: Could not setup numerical thresholds
-2967- type_latticepoint_update: Could not generate lattice points
-2966- xtb_calculator_singlepoint: Electronic structure method terminated
-2965- scf: Setup of Coulomb evaluator failed
-2964- type_coulomb_setupBoundaryConditions: Could not setup numerical thresholds
-2963- type_latticepoint_update: Could not generate lattice points
-2962- xtb_calculator_singlepoint: Electronic structure method terminated
-2961- scf: Setup of Coulomb evaluator failed
-2960- type_coulomb_setupBoundaryConditions: Could not setup numerical thresholds
-2959- type_latticepoint_update: Could not generate lattice points
-2958- xtb_calculator_singlepoint: Electronic structure method terminated
-2957- scf: Setup of Coulomb evaluator failed
-2956- type_coulomb_setupBoundaryConditions: Could not setup numerical thresholds
-2955- type_latticepoint_update: Could not generate lattice points
-2954- xtb_calculator_singlepoint: Electronic structure method terminated
-2953- scf: Setup of Coulomb evaluator failed
-2952- type_coulomb_setupBoundaryConditions: Could not setup numerical thresholds
-2951- type_latticepoint_update: Could not generate lattice points
-2950- xtb_calculator_singlepoint: Electronic structure method terminated
-2949- scf: Setup of Coulomb evaluator failed
-2948- type_coulomb_setupBoundaryConditions: Could not setup numerical thresholds
-2947- type_latticepoint_update: Could not generate lattice points
-2946- xtb_calculator_singlepoint: Electronic structure method terminated
-2945- scf: Setup of Coulomb evaluator failed
-2944- type_coulomb_setupBoundaryConditions: Could not setup numerical thresholds
-2943- type_latticepoint_update: Could not generate lattice points
-2942- xtb_calculator_singlepoint: Electronic structure method terminated
-2941- scf: Setup of Coulomb evaluator failed
-2940- type_coulomb_setupBoundaryConditions: Could not setup numerical thresholds
-2939- type_latticepoint_update: Could not generate lattice points
-2938- xtb_calculator_singlepoint: Electronic structure method terminated
-2937- scf: Setup of Coulomb evaluator failed
-2936- type_coulomb_setupBoundaryConditions: Could not setup numerical thresholds
-2935- type_latticepoint_update: Could not generate lattice points
-2934- xtb_calculator_singlepoint: Electronic structure method terminated
-2933- scf: Setup of Coulomb evaluator failed
-2932- type_coulomb_setupBoundaryConditions: Could not setup numerical thresholds
-2931- type_latticepoint_update: Could not generate lattice points
-2930- xtb_calculator_singlepoint: Electronic structure method terminated
-2929- scf: Setup of Coulomb evaluator failed
-2928- type_coulomb_setupBoundaryConditions: Could not setup numerical thresholds
-2927- type_latticepoint_update: Could not generate lattice points
-2926- xtb_calculator_singlepoint: Electronic structure method terminated
-2925- scf: Setup of Coulomb evaluator failed
-2924- type_coulomb_setupBoundaryConditions: Could not setup numerical thresholds
-2923- type_latticepoint_update: Could not generate lattice points
-2922- xtb_calculator_singlepoint: Electronic structure method terminated
-2921- scf: Setup of Coulomb evaluator failed
-2920- type_coulomb_setupBoundaryConditions: Could not setup numerical thresholds
-2919- type_latticepoint_update: Could not generate lattice points
-2918- xtb_calculator_singlepoint: Electronic structure method terminated
-2917- scf: Setup of Coulomb evaluator failed
-2916- type_coulomb_setupBoundaryConditions: Could not setup numerical thresholds
-2915- type_latticepoint_update: Could not generate lattice points
-2914- xtb_calculator_singlepoint: Electronic structure method terminated
-2913- scf: Setup of Coulomb evaluator failed
-2912- type_coulomb_setupBoundaryConditions: Could not setup numerical thresholds
-2911- type_latticepoint_update: Could not generate lattice points
-2910- xtb_calculator_singlepoint: Electronic structure method terminated
-2909- scf: Setup of Coulomb evaluator failed
-2908- type_coulomb_setupBoundaryConditions: Could not setup numerical thresholds
-2907- type_latticepoint_update: Could not generate lattice points
-2906- xtb_calculator_singlepoint: Electronic structure method terminated
-2905- scf: Setup of Coulomb evaluator failed
-2904- type_coulomb_setupBoundaryConditions: Could not setup numerical thresholds
-2903- type_latticepoint_update: Could not generate lattice points
-2902- xtb_calculator_singlepoint: Electronic structure method terminated
-2901- scf: Setup of Coulomb evaluator failed
-2900- type_coulomb_setupBoundaryConditions: Could not setup numerical thresholds
-2899- type_latticepoint_update: Could not generate lattice points
-2898- xtb_calculator_singlepoint: Electronic structure method terminated
-2897- scf: Setup of Coulomb evaluator failed
-2896- type_coulomb_setupBoundaryConditions: Could not setup numerical thresholds
-2895- type_latticepoint_update: Could not generate lattice points
-2894- xtb_calculator_singlepoint: Electronic structure method terminated
-2893- scf: Setup of Coulomb evaluator failed
-2892- type_coulomb_setupBoundaryConditions: Could not setup numerical thresholds
-2891- type_latticepoint_update: Could not generate lattice points
-2890- xtb_calculator_singlepoint: Electronic structure method terminated
-2889- scf: Setup of Coulomb evaluator failed
-2888- type_coulomb_setupBoundaryConditions: Could not setup numerical thresholds
-2887- type_latticepoint_update: Could not generate lattice points
-2886- xtb_calculator_singlepoint: Electronic structure method terminated
-2885- scf: Setup of Coulomb evaluator failed
-2884- type_coulomb_setupBoundaryConditions: Could not setup numerical thresholds
-2883- type_latticepoint_update: Could not generate lattice points
-2882- xtb_calculator_singlepoint: Electronic structure method terminated
-2881- scf: Setup of Coulomb evaluator failed
-2880- type_coulomb_setupBoundaryConditions: Could not setup numerical thresholds
-2879- type_latticepoint_update: Could not generate lattice points
-2878- xtb_calculator_singlepoint: Electronic structure method terminated
-2877- scf: Setup of Coulomb evaluator failed
-2876- type_coulomb_setupBoundaryConditions: Could not setup numerical thresholds
-2875- type_latticepoint_update: Could not generate lattice points
-2874- xtb_calculator_singlepoint: Electronic structure method terminated
-2873- scf: Setup of Coulomb evaluator failed
-2872- type_coulomb_setupBoundaryConditions: Could not setup numerical thresholds
-2871- type_latticepoint_update: Could not generate lattice points
-2870- xtb_calculator_singlepoint: Electronic structure method terminated
-2869- scf: Setup of Coulomb evaluator failed
-2868- type_coulomb_setupBoundaryConditions: Could not setup numerical thresholds
-2867- type_latticepoint_update: Could not generate lattice points
-2866- xtb_calculator_singlepoint: Electronic structure method terminated
-2865- scf: Setup of Coulomb evaluator failed
-2864- type_coulomb_setupBoundaryConditions: Could not setup numerical thresholds
-2863- type_latticepoint_update: Could not generate lattice points
-2862- xtb_calculator_singlepoint: Electronic structure method terminated
-2861- scf: Setup of Coulomb evaluator failed
-2860- type_coulomb_setupBoundaryConditions: Could not setup numerical thresholds
-2859- type_latticepoint_update: Could not generate lattice points
-2858- xtb_calculator_singlepoint: Electronic structure method terminated
-2857- scf: Setup of Coulomb evaluator failed
-2856- type_coulomb_setupBoundaryConditions: Could not setup numerical thresholds
-2855- type_latticepoint_update: Could not generate lattice points
-2854- xtb_calculator_singlepoint: Electronic structure method terminated
-2853- scf: Setup of Coulomb evaluator failed
-2852- type_coulomb_setupBoundaryConditions: Could not setup numerical thresholds
-2851- type_latticepoint_update: Could not generate lattice points
-2850- xtb_calculator_singlepoint: Electronic structure method terminated
-2849- scf: Setup of Coulomb evaluator failed
-2848- type_coulomb_setupBoundaryConditions: Could not setup numerical thresholds
-2847- type_latticepoint_update: Could not generate lattice points
-2846- xtb_calculator_singlepoint: Electronic structure method terminated
-2845- scf: Setup of Coulomb evaluator failed
-2844- type_coulomb_setupBoundaryConditions: Could not setup numerical thresholds
-2843- type_latticepoint_update: Could not generate lattice points
-2842- xtb_calculator_singlepoint: Electronic structure method terminated
-2841- scf: Setup of Coulomb evaluator failed
-2840- type_coulomb_setupBoundaryConditions: Could not setup numerical thresholds
-2839- type_latticepoint_update: Could not generate lattice points
-2838- xtb_calculator_singlepoint: Electronic structure method terminated
-2837- scf: Setup of Coulomb evaluator failed
-2836- type_coulomb_setupBoundaryConditions: Could not setup numerical thresholds
-2835- type_latticepoint_update: Could not generate lattice points
-2834- xtb_calculator_singlepoint: Electronic structure method terminated
-2833- scf: Setup of Coulomb evaluator failed
-2832- type_coulomb_setupBoundaryConditions: Could not setup numerical thresholds
-2831- type_latticepoint_update: Could not generate lattice points
-2830- xtb_calculator_singlepoint: Electronic structure method terminated
-2829- scf: Setup of Coulomb evaluator failed
-2828- type_coulomb_setupBoundaryConditions: Could not setup numerical thresholds
-2827- type_latticepoint_update: Could not generate lattice points
-2826- xtb_calculator_singlepoint: Electronic structure method terminated
-2825- scf: Setup of Coulomb evaluator failed
-2824- type_coulomb_setupBoundaryConditions: Could not setup numerical thresholds
-2823- type_latticepoint_update: Could not generate lattice points
-2822- xtb_calculator_singlepoint: Electronic structure method terminated
-2821- scf: Setup of Coulomb evaluator failed
-2820- type_coulomb_setupBoundaryConditions: Could not setup numerical thresholds
-2819- type_latticepoint_update: Could not generate lattice points
-2818- xtb_calculator_singlepoint: Electronic structure method terminated
-2817- scf: Setup of Coulomb evaluator failed
-2816- type_coulomb_setupBoundaryConditions: Could not setup numerical thresholds
-2815- type_latticepoint_update: Could not generate lattice points
-2814- xtb_calculator_singlepoint: Electronic structure method terminated
-2813- scf: Setup of Coulomb evaluator failed
-2812- type_coulomb_setupBoundaryConditions: Could not setup numerical thresholds
-2811- type_latticepoint_update: Could not generate lattice points
-2810- xtb_calculator_singlepoint: Electronic structure method terminated
-2809- scf: Setup of Coulomb evaluator failed
-2808- type_coulomb_setupBoundaryConditions: Could not setup numerical thresholds
-2807- type_latticepoint_update: Could not generate lattice points
-2806- xtb_calculator_singlepoint: Electronic structure method terminated
-2805- scf: Setup of Coulomb evaluator failed
-2804- type_coulomb_setupBoundaryConditions: Could not setup numerical thresholds
-2803- type_latticepoint_update: Could not generate lattice points
-2802- xtb_calculator_singlepoint: Electronic structure method terminated
-2801- scf: Setup of Coulomb evaluator failed
-2800- type_coulomb_setupBoundaryConditions: Could not setup numerical thresholds
-2799- type_latticepoint_update: Could not generate lattice points
-2798- xtb_calculator_singlepoint: Electronic structure method terminated
-2797- scf: Setup of Coulomb evaluator failed
-2796- type_coulomb_setupBoundaryConditions: Could not setup numerical thresholds
-2795- type_latticepoint_update: Could not generate lattice points
-2794- xtb_calculator_singlepoint: Electronic structure method terminated
-2793- scf: Setup of Coulomb evaluator failed
-2792- type_coulomb_setupBoundaryConditions: Could not setup numerical thresholds
-2791- type_latticepoint_update: Could not generate lattice points
-2790- xtb_calculator_singlepoint: Electronic structure method terminated
-2789- scf: Setup of Coulomb evaluator failed
-2788- type_coulomb_setupBoundaryConditions: Could not setup numerical thresholds
-2787- type_latticepoint_update: Could not generate lattice points
-2786- xtb_calculator_singlepoint: Electronic structure method terminated
-2785- scf: Setup of Coulomb evaluator failed
-2784- type_coulomb_setupBoundaryConditions: Could not setup numerical thresholds
-2783- type_latticepoint_update: Could not generate lattice points
-2782- xtb_calculator_singlepoint: Electronic structure method terminated
-2781- scf: Setup of Coulomb evaluator failed
-2780- type_coulomb_setupBoundaryConditions: Could not setup numerical thresholds
-2779- type_latticepoint_update: Could not generate lattice points
-2778- xtb_calculator_singlepoint: Electronic structure method terminated
-2777- scf: Setup of Coulomb evaluator failed
-2776- type_coulomb_setupBoundaryConditions: Could not setup numerical thresholds
-2775- type_latticepoint_update: Could not generate lattice points
-2774- xtb_calculator_singlepoint: Electronic structure method terminated
-2773- scf: Setup of Coulomb evaluator failed
-2772- type_coulomb_setupBoundaryConditions: Could not setup numerical thresholds
-2771- type_latticepoint_update: Could not generate lattice points
-2770- xtb_calculator_singlepoint: Electronic structure method terminated
-2769- scf: Setup of Coulomb evaluator failed
-2768- type_coulomb_setupBoundaryConditions: Could not setup numerical thresholds
-2767- type_latticepoint_update: Could not generate lattice points
-2766- xtb_calculator_singlepoint: Electronic structure method terminated
-2765- scf: Setup of Coulomb evaluator failed
-2764- type_coulomb_setupBoundaryConditions: Could not setup numerical thresholds
-2763- type_latticepoint_update: Could not generate lattice points
-2762- xtb_calculator_singlepoint: Electronic structure method terminated
-2761- scf: Setup of Coulomb evaluator failed
-2760- type_coulomb_setupBoundaryConditions: Could not setup numerical thresholds
-2759- type_latticepoint_update: Could not generate lattice points
-2758- xtb_calculator_singlepoint: Electronic structure method terminated
-2757- scf: Setup of Coulomb evaluator failed
-2756- type_coulomb_setupBoundaryConditions: Could not setup numerical thresholds
-2755- type_latticepoint_update: Could not generate lattice points
-2754- xtb_calculator_singlepoint: Electronic structure method terminated
-2753- scf: Setup of Coulomb evaluator failed
-2752- type_coulomb_setupBoundaryConditions: Could not setup numerical thresholds
-2751- type_latticepoint_update: Could not generate lattice points
-2750- xtb_calculator_singlepoint: Electronic structure method terminated
-2749- scf: Setup of Coulomb evaluator failed
-2748- type_coulomb_setupBoundaryConditions: Could not setup numerical thresholds
-2747- type_latticepoint_update: Could not generate lattice points
-2746- xtb_calculator_singlepoint: Electronic structure method terminated
-2745- scf: Setup of Coulomb evaluator failed
-2744- type_coulomb_setupBoundaryConditions: Could not setup numerical thresholds
-2743- type_latticepoint_update: Could not generate lattice points
-2742- xtb_calculator_singlepoint: Electronic structure method terminated
-2741- scf: Setup of Coulomb evaluator failed
-2740- type_coulomb_setupBoundaryConditions: Could not setup numerical thresholds
-2739- type_latticepoint_update: Could not generate lattice points
-2738- xtb_calculator_singlepoint: Electronic structure method terminated
-2737- scf: Setup of Coulomb evaluator failed
-2736- type_coulomb_setupBoundaryConditions: Could not setup numerical thresholds
-2735- type_latticepoint_update: Could not generate lattice points
-2734- xtb_calculator_singlepoint: Electronic structure method terminated
-2733- scf: Setup of Coulomb evaluator failed
-2732- type_coulomb_setupBoundaryConditions: Could not setup numerical thresholds
-2731- type_latticepoint_update: Could not generate lattice points
-2730- xtb_calculator_singlepoint: Electronic structure method terminated
-2729- scf: Setup of Coulomb evaluator failed
-2728- type_coulomb_setupBoundaryConditions: Could not setup numerical thresholds
-2727- type_latticepoint_update: Could not generate lattice points
-2726- xtb_calculator_singlepoint: Electronic structure method terminated
-2725- scf: Setup of Coulomb evaluator failed
-2724- type_coulomb_setupBoundaryConditions: Could not setup numerical thresholds
-2723- type_latticepoint_update: Could not generate lattice points
-2722- xtb_calculator_singlepoint: Electronic structure method terminated
-2721- scf: Setup of Coulomb evaluator failed
-2720- type_coulomb_setupBoundaryConditions: Could not setup numerical thresholds
-2719- type_latticepoint_update: Could not generate lattice points
-2718- xtb_calculator_singlepoint: Electronic structure method terminated
-2717- scf: Setup of Coulomb evaluator failed
-2716- type_coulomb_setupBoundaryConditions: Could not setup numerical thresholds
-2715- type_latticepoint_update: Could not generate lattice points
-2714- xtb_calculator_singlepoint: Electronic structure method terminated
-2713- scf: Setup of Coulomb evaluator failed
-2712- type_coulomb_setupBoundaryConditions: Could not setup numerical thresholds
-2711- type_latticepoint_update: Could not generate lattice points
-2710- xtb_calculator_singlepoint: Electronic structure method terminated
-2709- scf: Setup of Coulomb evaluator failed
-2708- type_coulomb_setupBoundaryConditions: Could not setup numerical thresholds
-2707- type_latticepoint_update: Could not generate lattice points
-2706- xtb_calculator_singlepoint: Electronic structure method terminated
-2705- scf: Setup of Coulomb evaluator failed
-2704- type_coulomb_setupBoundaryConditions: Could not setup numerical thresholds
-2703- type_latticepoint_update: Could not generate lattice points
-2702- xtb_calculator_singlepoint: Electronic structure method terminated
-2701- scf: Setup of Coulomb evaluator failed
-2700- type_coulomb_setupBoundaryConditions: Could not setup numerical thresholds
-2699- type_latticepoint_update: Could not generate lattice points
-2698- xtb_calculator_singlepoint: Electronic structure method terminated
-2697- scf: Setup of Coulomb evaluator failed
-2696- type_coulomb_setupBoundaryConditions: Could not setup numerical thresholds
-2695- type_latticepoint_update: Could not generate lattice points
-2694- xtb_calculator_singlepoint: Electronic structure method terminated
-2693- scf: Setup of Coulomb evaluator failed
-2692- type_coulomb_setupBoundaryConditions: Could not setup numerical thresholds
-2691- type_latticepoint_update: Could not generate lattice points
-2690- xtb_calculator_singlepoint: Electronic structure method terminated
-2689- scf: Setup of Coulomb evaluator failed
-2688- type_coulomb_setupBoundaryConditions: Could not setup numerical thresholds
-2687- type_latticepoint_update: Could not generate lattice points
-2686- xtb_calculator_singlepoint: Electronic structure method terminated
-2685- scf: Setup of Coulomb evaluator failed
-2684- type_coulomb_setupBoundaryConditions: Could not setup numerical thresholds
-2683- type_latticepoint_update: Could not generate lattice points
-2682- xtb_calculator_singlepoint: Electronic structure method terminated
-2681- scf: Setup of Coulomb evaluator failed
-2680- type_coulomb_setupBoundaryConditions: Could not setup numerical thresholds
-2679- type_latticepoint_update: Could not generate lattice points
-2678- xtb_calculator_singlepoint: Electronic structure method terminated
-2677- scf: Setup of Coulomb evaluator failed
-2676- type_coulomb_setupBoundaryConditions: Could not setup numerical thresholds
-2675- type_latticepoint_update: Could not generate lattice points
-2674- xtb_calculator_singlepoint: Electronic structure method terminated
-2673- scf: Setup of Coulomb evaluator failed
-2672- type_coulomb_setupBoundaryConditions: Could not setup numerical thresholds
-2671- type_latticepoint_update: Could not generate lattice points
-2670- xtb_calculator_singlepoint: Electronic structure method terminated
-2669- scf: Setup of Coulomb evaluator failed
-2668- type_coulomb_setupBoundaryConditions: Could not setup numerical thresholds
-2667- type_latticepoint_update: Could not generate lattice points
-2666- xtb_calculator_singlepoint: Electronic structure method terminated
-2665- scf: Setup of Coulomb evaluator failed
-2664- type_coulomb_setupBoundaryConditions: Could not setup numerical thresholds
-2663- type_latticepoint_update: Could not generate lattice points
-2662- xtb_calculator_singlepoint: Electronic structure method terminated
-2661- scf: Setup of Coulomb evaluator failed
-2660- type_coulomb_setupBoundaryConditions: Could not setup numerical thresholds
-2659- type_latticepoint_update: Could not generate lattice points
-2658- xtb_calculator_singlepoint: Electronic structure method terminated
-2657- scf: Setup of Coulomb evaluator failed
-2656- type_coulomb_setupBoundaryConditions: Could not setup numerical thresholds
-2655- type_latticepoint_update: Could not generate lattice points
-2654- xtb_calculator_singlepoint: Electronic structure method terminated
-2653- scf: Setup of Coulomb evaluator failed
-2652- type_coulomb_setupBoundaryConditions: Could not setup numerical thresholds
-2651- type_latticepoint_update: Could not generate lattice points
-2650- xtb_calculator_singlepoint: Electronic structure method terminated
-2649- scf: Setup of Coulomb evaluator failed
-2648- type_coulomb_setupBoundaryConditions: Could not setup numerical thresholds
-2647- type_latticepoint_update: Could not generate lattice points
-2646- xtb_calculator_singlepoint: Electronic structure method terminated
-2645- scf: Setup of Coulomb evaluator failed
-2644- type_coulomb_setupBoundaryConditions: Could not setup numerical thresholds
-2643- type_latticepoint_update: Could not generate lattice points
-2642- xtb_calculator_singlepoint: Electronic structure method terminated
-2641- scf: Setup of Coulomb evaluator failed
-2640- type_coulomb_setupBoundaryConditions: Could not setup numerical thresholds
-2639- type_latticepoint_update: Could not generate lattice points
-2638- xtb_calculator_singlepoint: Electronic structure method terminated
-2637- scf: Setup of Coulomb evaluator failed
-2636- type_coulomb_setupBoundaryConditions: Could not setup numerical thresholds
-2635- type_latticepoint_update: Could not generate lattice points
-2634- xtb_calculator_singlepoint: Electronic structure method terminated
-2633- scf: Setup of Coulomb evaluator failed
-2632- type_coulomb_setupBoundaryConditions: Could not setup numerical thresholds
-2631- type_latticepoint_update: Could not generate lattice points
-2630- xtb_calculator_singlepoint: Electronic structure method terminated
-2629- scf: Setup of Coulomb evaluator failed
-2628- type_coulomb_setupBoundaryConditions: Could not setup numerical thresholds
-2627- type_latticepoint_update: Could not generate lattice points
-2626- xtb_calculator_singlepoint: Electronic structure method terminated
-2625- scf: Setup of Coulomb evaluator failed
-2624- type_coulomb_setupBoundaryConditions: Could not setup numerical thresholds
-2623- type_latticepoint_update: Could not generate lattice points
-2622- xtb_calculator_singlepoint: Electronic structure method terminated
-2621- scf: Setup of Coulomb evaluator failed
-2620- type_coulomb_setupBoundaryConditions: Could not setup numerical thresholds
-2619- type_latticepoint_update: Could not generate lattice points
-2618- xtb_calculator_singlepoint: Electronic structure method terminated
-2617- scf: Setup of Coulomb evaluator failed
-2616- type_coulomb_setupBoundaryConditions: Could not setup numerical thresholds
-2615- type_latticepoint_update: Could not generate lattice points
-2614- xtb_calculator_singlepoint: Electronic structure method terminated
-2613- scf: Setup of Coulomb evaluator failed
-2612- type_coulomb_setupBoundaryConditions: Could not setup numerical thresholds
-2611- type_latticepoint_update: Could not generate lattice points
-2610- xtb_calculator_singlepoint: Electronic structure method terminated
-2609- scf: Setup of Coulomb evaluator failed
-2608- type_coulomb_setupBoundaryConditions: Could not setup numerical thresholds
-2607- type_latticepoint_update: Could not generate lattice points
-2606- xtb_calculator_singlepoint: Electronic structure method terminated
-2605- scf: Setup of Coulomb evaluator failed
-2604- type_coulomb_setupBoundaryConditions: Could not setup numerical thresholds
-2603- type_latticepoint_update: Could not generate lattice points
-2602- xtb_calculator_singlepoint: Electronic structure method terminated
-2601- scf: Setup of Coulomb evaluator failed
-2600- type_coulomb_setupBoundaryConditions: Could not setup numerical thresholds
-2599- type_latticepoint_update: Could not generate lattice points
-2598- xtb_calculator_singlepoint: Electronic structure method terminated
-2597- scf: Setup of Coulomb evaluator failed
-2596- type_coulomb_setupBoundaryConditions: Could not setup numerical thresholds
-2595- type_latticepoint_update: Could not generate lattice points
-2594- xtb_calculator_singlepoint: Electronic structure method terminated
-2593- scf: Setup of Coulomb evaluator failed
-2592- type_coulomb_setupBoundaryConditions: Could not setup numerical thresholds
-2591- type_latticepoint_update: Could not generate lattice points
-2590- xtb_calculator_singlepoint: Electronic structure method terminated
-2589- scf: Setup of Coulomb evaluator failed
-2588- type_coulomb_setupBoundaryConditions: Could not setup numerical thresholds
-2587- type_latticepoint_update: Could not generate lattice points
-2586- xtb_calculator_singlepoint: Electronic structure method terminated
-2585- scf: Setup of Coulomb evaluator failed
-2584- type_coulomb_setupBoundaryConditions: Could not setup numerical thresholds
-2583- type_latticepoint_update: Could not generate lattice points
-2582- xtb_calculator_singlepoint: Electronic structure method terminated
-2581- scf: Setup of Coulomb evaluator failed
-2580- type_coulomb_setupBoundaryConditions: Could not setup numerical thresholds
-2579- type_latticepoint_update: Could not generate lattice points
-2578- xtb_calculator_singlepoint: Electronic structure method terminated
-2577- scf: Setup of Coulomb evaluator failed
-2576- type_coulomb_setupBoundaryConditions: Could not setup numerical thresholds
-2575- type_latticepoint_update: Could not generate lattice points
-2574- xtb_calculator_singlepoint: Electronic structure method terminated
-2573- scf: Setup of Coulomb evaluator failed
-2572- type_coulomb_setupBoundaryConditions: Could not setup numerical thresholds
-2571- type_latticepoint_update: Could not generate lattice points
-2570- xtb_calculator_singlepoint: Electronic structure method terminated
-2569- scf: Setup of Coulomb evaluator failed
-2568- type_coulomb_setupBoundaryConditions: Could not setup numerical thresholds
-2567- type_latticepoint_update: Could not generate lattice points
-2566- xtb_calculator_singlepoint: Electronic structure method terminated
-2565- scf: Setup of Coulomb evaluator failed
-2564- type_coulomb_setupBoundaryConditions: Could not setup numerical thresholds
-2563- type_latticepoint_update: Could not generate lattice points
-2562- xtb_calculator_singlepoint: Electronic structure method terminated
-2561- scf: Setup of Coulomb evaluator failed
-2560- type_coulomb_setupBoundaryConditions: Could not setup numerical thresholds
-2559- type_latticepoint_update: Could not generate lattice points
-2558- xtb_calculator_singlepoint: Electronic structure method terminated
-2557- scf: Setup of Coulomb evaluator failed
-2556- type_coulomb_setupBoundaryConditions: Could not setup numerical thresholds
-2555- type_latticepoint_update: Could not generate lattice points
-2554- xtb_calculator_singlepoint: Electronic structure method terminated
-2553- scf: Setup of Coulomb evaluator failed
-2552- type_coulomb_setupBoundaryConditions: Could not setup numerical thresholds
-2551- type_latticepoint_update: Could not generate lattice points
-2550- xtb_calculator_singlepoint: Electronic structure method terminated
-2549- scf: Setup of Coulomb evaluator failed
-2548- type_coulomb_setupBoundaryConditions: Could not setup numerical thresholds
-2547- type_latticepoint_update: Could not generate lattice points
-2546- xtb_calculator_singlepoint: Electronic structure method terminated
-2545- scf: Setup of Coulomb evaluator failed
-2544- type_coulomb_setupBoundaryConditions: Could not setup numerical thresholds
-2543- type_latticepoint_update: Could not generate lattice points
-2542- xtb_calculator_singlepoint: Electronic structure method terminated
-2541- scf: Setup of Coulomb evaluator failed
-2540- type_coulomb_setupBoundaryConditions: Could not setup numerical thresholds
-2539- type_latticepoint_update: Could not generate lattice points
-2538- xtb_calculator_singlepoint: Electronic structure method terminated
-2537- scf: Setup of Coulomb evaluator failed
-2536- type_coulomb_setupBoundaryConditions: Could not setup numerical thresholds
-2535- type_latticepoint_update: Could not generate lattice points
-2534- xtb_calculator_singlepoint: Electronic structure method terminated
-2533- scf: Setup of Coulomb evaluator failed
-2532- type_coulomb_setupBoundaryConditions: Could not setup numerical thresholds
-2531- type_latticepoint_update: Could not generate lattice points
-2530- xtb_calculator_singlepoint: Electronic structure method terminated
-2529- scf: Setup of Coulomb evaluator failed
-2528- type_coulomb_setupBoundaryConditions: Could not setup numerical thresholds
-2527- type_latticepoint_update: Could not generate lattice points
-2526- xtb_calculator_singlepoint: Electronic structure method terminated
-2525- scf: Setup of Coulomb evaluator failed
-2524- type_coulomb_setupBoundaryConditions: Could not setup numerical thresholds
-2523- type_latticepoint_update: Could not generate lattice points
-2522- xtb_calculator_singlepoint: Electronic structure method terminated
-2521- scf: Setup of Coulomb evaluator failed
-2520- type_coulomb_setupBoundaryConditions: Could not setup numerical thresholds
-2519- type_latticepoint_update: Could not generate lattice points
-2518- xtb_calculator_singlepoint: Electronic structure method terminated
-2517- scf: Setup of Coulomb evaluator failed
-2516- type_coulomb_setupBoundaryConditions: Could not setup numerical thresholds
-2515- type_latticepoint_update: Could not generate lattice points
-2514- xtb_calculator_singlepoint: Electronic structure method terminated
-2513- scf: Setup of Coulomb evaluator failed
-2512- type_coulomb_setupBoundaryConditions: Could not setup numerical thresholds
-2511- type_latticepoint_update: Could not generate lattice points
-2510- xtb_calculator_singlepoint: Electronic structure method terminated
-2509- scf: Setup of Coulomb evaluator failed
-2508- type_coulomb_setupBoundaryConditions: Could not setup numerical thresholds
-2507- type_latticepoint_update: Could not generate lattice points
-2506- xtb_calculator_singlepoint: Electronic structure method terminated
-2505- scf: Setup of Coulomb evaluator failed
-2504- type_coulomb_setupBoundaryConditions: Could not setup numerical thresholds
-2503- type_latticepoint_update: Could not generate lattice points
-2502- xtb_calculator_singlepoint: Electronic structure method terminated
-2501- scf: Setup of Coulomb evaluator failed
-2500- type_coulomb_setupBoundaryConditions: Could not setup numerical thresholds
-2499- type_latticepoint_update: Could not generate lattice points
-2498- xtb_calculator_singlepoint: Electronic structure method terminated
-2497- scf: Setup of Coulomb evaluator failed
-2496- type_coulomb_setupBoundaryConditions: Could not setup numerical thresholds
-2495- type_latticepoint_update: Could not generate lattice points
-2494- xtb_calculator_singlepoint: Electronic structure method terminated
-2493- scf: Setup of Coulomb evaluator failed
-2492- type_coulomb_setupBoundaryConditions: Could not setup numerical thresholds
-2491- type_latticepoint_update: Could not generate lattice points
-2490- xtb_calculator_singlepoint: Electronic structure method terminated
-2489- scf: Setup of Coulomb evaluator failed
-2488- type_coulomb_setupBoundaryConditions: Could not setup numerical thresholds
-2487- type_latticepoint_update: Could not generate lattice points
-2486- xtb_calculator_singlepoint: Electronic structure method terminated
-2485- scf: Setup of Coulomb evaluator failed
-2484- type_coulomb_setupBoundaryConditions: Could not setup numerical thresholds
-2483- type_latticepoint_update: Could not generate lattice points
-2482- xtb_calculator_singlepoint: Electronic structure method terminated
-2481- scf: Setup of Coulomb evaluator failed
-2480- type_coulomb_setupBoundaryConditions: Could not setup numerical thresholds
-2479- type_latticepoint_update: Could not generate lattice points
-2478- xtb_calculator_singlepoint: Electronic structure method terminated
-2477- scf: Setup of Coulomb evaluator failed
-2476- type_coulomb_setupBoundaryConditions: Could not setup numerical thresholds
-2475- type_latticepoint_update: Could not generate lattice points
-2474- xtb_calculator_singlepoint: Electronic structure method terminated
-2473- scf: Setup of Coulomb evaluator failed
-2472- type_coulomb_setupBoundaryConditions: Could not setup numerical thresholds
-2471- type_latticepoint_update: Could not generate lattice points
-2470- xtb_calculator_singlepoint: Electronic structure method terminated
-2469- scf: Setup of Coulomb evaluator failed
-2468- type_coulomb_setupBoundaryConditions: Could not setup numerical thresholds
-2467- type_latticepoint_update: Could not generate lattice points
-2466- xtb_calculator_singlepoint: Electronic structure method terminated
-2465- scf: Setup of Coulomb evaluator failed
-2464- type_coulomb_setupBoundaryConditions: Could not setup numerical thresholds
-2463- type_latticepoint_update: Could not generate lattice points
-2462- xtb_calculator_singlepoint: Electronic structure method terminated
-2461- scf: Setup of Coulomb evaluator failed
-2460- type_coulomb_setupBoundaryConditions: Could not setup numerical thresholds
-2459- type_latticepoint_update: Could not generate lattice points
-2458- xtb_calculator_singlepoint: Electronic structure method terminated
-2457- scf: Setup of Coulomb evaluator failed
-2456- type_coulomb_setupBoundaryConditions: Could not setup numerical thresholds
-2455- type_latticepoint_update: Could not generate lattice points
-2454- xtb_calculator_singlepoint: Electronic structure method terminated
-2453- scf: Setup of Coulomb evaluator failed
-2452- type_coulomb_setupBoundaryConditions: Could not setup numerical thresholds
-2451- type_latticepoint_update: Could not generate lattice points
-2450- xtb_calculator_singlepoint: Electronic structure method terminated
-2449- scf: Setup of Coulomb evaluator failed
-2448- type_coulomb_setupBoundaryConditions: Could not setup numerical thresholds
-2447- type_latticepoint_update: Could not generate lattice points
-2446- xtb_calculator_singlepoint: Electronic structure method terminated
-2445- scf: Setup of Coulomb evaluator failed
-2444- type_coulomb_setupBoundaryConditions: Could not setup numerical thresholds
-2443- type_latticepoint_update: Could not generate lattice points
-2442- xtb_calculator_singlepoint: Electronic structure method terminated
-2441- scf: Setup of Coulomb evaluator failed
-2440- type_coulomb_setupBoundaryConditions: Could not setup numerical thresholds
-2439- type_latticepoint_update: Could not generate lattice points
-2438- xtb_calculator_singlepoint: Electronic structure method terminated
-2437- scf: Setup of Coulomb evaluator failed
-2436- type_coulomb_setupBoundaryConditions: Could not setup numerical thresholds
-2435- type_latticepoint_update: Could not generate lattice points
-2434- xtb_calculator_singlepoint: Electronic structure method terminated
-2433- scf: Setup of Coulomb evaluator failed
-2432- type_coulomb_setupBoundaryConditions: Could not setup numerical thresholds
-2431- type_latticepoint_update: Could not generate lattice points
-2430- xtb_calculator_singlepoint: Electronic structure method terminated
-2429- scf: Setup of Coulomb evaluator failed
-2428- type_coulomb_setupBoundaryConditions: Could not setup numerical thresholds
-2427- type_latticepoint_update: Could not generate lattice points
-2426- xtb_calculator_singlepoint: Electronic structure method terminated
-2425- scf: Setup of Coulomb evaluator failed
-2424- type_coulomb_setupBoundaryConditions: Could not setup numerical thresholds
-2423- type_latticepoint_update: Could not generate lattice points
-2422- xtb_calculator_singlepoint: Electronic structure method terminated
-2421- scf: Setup of Coulomb evaluator failed
-2420- type_coulomb_setupBoundaryConditions: Could not setup numerical thresholds
-2419- type_latticepoint_update: Could not generate lattice points
-2418- xtb_calculator_singlepoint: Electronic structure method terminated
-2417- scf: Setup of Coulomb evaluator failed
-2416- type_coulomb_setupBoundaryConditions: Could not setup numerical thresholds
-2415- type_latticepoint_update: Could not generate lattice points
-2414- xtb_calculator_singlepoint: Electronic structure method terminated
-2413- scf: Setup of Coulomb evaluator failed
-2412- type_coulomb_setupBoundaryConditions: Could not setup numerical thresholds
-2411- type_latticepoint_update: Could not generate lattice points
-2410- xtb_calculator_singlepoint: Electronic structure method terminated
-2409- scf: Setup of Coulomb evaluator failed
-2408- type_coulomb_setupBoundaryConditions: Could not setup numerical thresholds
-2407- type_latticepoint_update: Could not generate lattice points
-2406- xtb_calculator_singlepoint: Electronic structure method terminated
-2405- scf: Setup of Coulomb evaluator failed
-2404- type_coulomb_setupBoundaryConditions: Could not setup numerical thresholds
-2403- type_latticepoint_update: Could not generate lattice points
-2402- xtb_calculator_singlepoint: Electronic structure method terminated
-2401- scf: Setup of Coulomb evaluator failed
-2400- type_coulomb_setupBoundaryConditions: Could not setup numerical thresholds
-2399- type_latticepoint_update: Could not generate lattice points
-2398- xtb_calculator_singlepoint: Electronic structure method terminated
-2397- scf: Setup of Coulomb evaluator failed
-2396- type_coulomb_setupBoundaryConditions: Could not setup numerical thresholds
-2395- type_latticepoint_update: Could not generate lattice points
-2394- xtb_calculator_singlepoint: Electronic structure method terminated
-2393- scf: Setup of Coulomb evaluator failed
-2392- type_coulomb_setupBoundaryConditions: Could not setup numerical thresholds
-2391- type_latticepoint_update: Could not generate lattice points
-2390- xtb_calculator_singlepoint: Electronic structure method terminated
-2389- scf: Setup of Coulomb evaluator failed
-2388- type_coulomb_setupBoundaryConditions: Could not setup numerical thresholds
-2387- type_latticepoint_update: Could not generate lattice points
-2386- xtb_calculator_singlepoint: Electronic structure method terminated
-2385- scf: Setup of Coulomb evaluator failed
-2384- type_coulomb_setupBoundaryConditions: Could not setup numerical thresholds
-2383- type_latticepoint_update: Could not generate lattice points
-2382- xtb_calculator_singlepoint: Electronic structure method terminated
-2381- scf: Setup of Coulomb evaluator failed
-2380- type_coulomb_setupBoundaryConditions: Could not setup numerical thresholds
-2379- type_latticepoint_update: Could not generate lattice points
-2378- xtb_calculator_singlepoint: Electronic structure method terminated
-2377- scf: Setup of Coulomb evaluator failed
-2376- type_coulomb_setupBoundaryConditions: Could not setup numerical thresholds
-2375- type_latticepoint_update: Could not generate lattice points
-2374- xtb_calculator_singlepoint: Electronic structure method terminated
-2373- scf: Setup of Coulomb evaluator failed
-2372- type_coulomb_setupBoundaryConditions: Could not setup numerical thresholds
-2371- type_latticepoint_update: Could not generate lattice points
-2370- xtb_calculator_singlepoint: Electronic structure method terminated
-2369- scf: Setup of Coulomb evaluator failed
-2368- type_coulomb_setupBoundaryConditions: Could not setup numerical thresholds
-2367- type_latticepoint_update: Could not generate lattice points
-2366- xtb_calculator_singlepoint: Electronic structure method terminated
-2365- scf: Setup of Coulomb evaluator failed
-2364- type_coulomb_setupBoundaryConditions: Could not setup numerical thresholds
-2363- type_latticepoint_update: Could not generate lattice points
-2362- xtb_calculator_singlepoint: Electronic structure method terminated
-2361- scf: Setup of Coulomb evaluator failed
-2360- type_coulomb_setupBoundaryConditions: Could not setup numerical thresholds
-2359- type_latticepoint_update: Could not generate lattice points
-2358- xtb_calculator_singlepoint: Electronic structure method terminated
-2357- scf: Setup of Coulomb evaluator failed
-2356- type_coulomb_setupBoundaryConditions: Could not setup numerical thresholds
-2355- type_latticepoint_update: Could not generate lattice points
-2354- xtb_calculator_singlepoint: Electronic structure method terminated
-2353- scf: Setup of Coulomb evaluator failed
-2352- type_coulomb_setupBoundaryConditions: Could not setup numerical thresholds
-2351- type_latticepoint_update: Could not generate lattice points
-2350- xtb_calculator_singlepoint: Electronic structure method terminated
-2349- scf: Setup of Coulomb evaluator failed
-2348- type_coulomb_setupBoundaryConditions: Could not setup numerical thresholds
-2347- type_latticepoint_update: Could not generate lattice points
-2346- xtb_calculator_singlepoint: Electronic structure method terminated
-2345- scf: Setup of Coulomb evaluator failed
-2344- type_coulomb_setupBoundaryConditions: Could not setup numerical thresholds
-2343- type_latticepoint_update: Could not generate lattice points
-2342- xtb_calculator_singlepoint: Electronic structure method terminated
-2341- scf: Setup of Coulomb evaluator failed
-2340- type_coulomb_setupBoundaryConditions: Could not setup numerical thresholds
-2339- type_latticepoint_update: Could not generate lattice points
-2338- xtb_calculator_singlepoint: Electronic structure method terminated
-2337- scf: Setup of Coulomb evaluator failed
-2336- type_coulomb_setupBoundaryConditions: Could not setup numerical thresholds
-2335- type_latticepoint_update: Could not generate lattice points
-2334- xtb_calculator_singlepoint: Electronic structure method terminated
-2333- scf: Setup of Coulomb evaluator failed
-2332- type_coulomb_setupBoundaryConditions: Could not setup numerical thresholds
-2331- type_latticepoint_update: Could not generate lattice points
-2330- xtb_calculator_singlepoint: Electronic structure method terminated
-2329- scf: Setup of Coulomb evaluator failed
-2328- type_coulomb_setupBoundaryConditions: Could not setup numerical thresholds
-2327- type_latticepoint_update: Could not generate lattice points
-2326- xtb_calculator_singlepoint: Electronic structure method terminated
-2325- scf: Setup of Coulomb evaluator failed
-2324- type_coulomb_setupBoundaryConditions: Could not setup numerical thresholds
-2323- type_latticepoint_update: Could not generate lattice points
-2322- xtb_calculator_singlepoint: Electronic structure method terminated
-2321- scf: Setup of Coulomb evaluator failed
-2320- type_coulomb_setupBoundaryConditions: Could not setup numerical thresholds
-2319- type_latticepoint_update: Could not generate lattice points
-2318- xtb_calculator_singlepoint: Electronic structure method terminated
-2317- scf: Setup of Coulomb evaluator failed
-2316- type_coulomb_setupBoundaryConditions: Could not setup numerical thresholds
-2315- type_latticepoint_update: Could not generate lattice points
-2314- xtb_calculator_singlepoint: Electronic structure method terminated
-2313- scf: Setup of Coulomb evaluator failed
-2312- type_coulomb_setupBoundaryConditions: Could not setup numerical thresholds
-2311- type_latticepoint_update: Could not generate lattice points
-2310- xtb_calculator_singlepoint: Electronic structure method terminated
-2309- scf: Setup of Coulomb evaluator failed
-2308- type_coulomb_setupBoundaryConditions: Could not setup numerical thresholds
-2307- type_latticepoint_update: Could not generate lattice points
-2306- xtb_calculator_singlepoint: Electronic structure method terminated
-2305- scf: Setup of Coulomb evaluator failed
-2304- type_coulomb_setupBoundaryConditions: Could not setup numerical thresholds
-2303- type_latticepoint_update: Could not generate lattice points
-2302- xtb_calculator_singlepoint: Electronic structure method terminated
-2301- scf: Setup of Coulomb evaluator failed
-2300- type_coulomb_setupBoundaryConditions: Could not setup numerical thresholds
-2299- type_latticepoint_update: Could not generate lattice points
-2298- xtb_calculator_singlepoint: Electronic structure method terminated
-2297- scf: Setup of Coulomb evaluator failed
-2296- type_coulomb_setupBoundaryConditions: Could not setup numerical thresholds
-2295- type_latticepoint_update: Could not generate lattice points
-2294- xtb_calculator_singlepoint: Electronic structure method terminated
-2293- scf: Setup of Coulomb evaluator failed
-2292- type_coulomb_setupBoundaryConditions: Could not setup numerical thresholds
-2291- type_latticepoint_update: Could not generate lattice points
-2290- xtb_calculator_singlepoint: Electronic structure method terminated
-2289- scf: Setup of Coulomb evaluator failed
-2288- type_coulomb_setupBoundaryConditions: Could not setup numerical thresholds
-2287- type_latticepoint_update: Could not generate lattice points
-2286- xtb_calculator_singlepoint: Electronic structure method terminated
-2285- scf: Setup of Coulomb evaluator failed
-2284- type_coulomb_setupBoundaryConditions: Could not setup numerical thresholds
-2283- type_latticepoint_update: Could not generate lattice points
-2282- xtb_calculator_singlepoint: Electronic structure method terminated
-2281- scf: Setup of Coulomb evaluator failed
-2280- type_coulomb_setupBoundaryConditions: Could not setup numerical thresholds
-2279- type_latticepoint_update: Could not generate lattice points
-2278- xtb_calculator_singlepoint: Electronic structure method terminated
-2277- scf: Setup of Coulomb evaluator failed
-2276- type_coulomb_setupBoundaryConditions: Could not setup numerical thresholds
-2275- type_latticepoint_update: Could not generate lattice points
-2274- xtb_calculator_singlepoint: Electronic structure method terminated
-2273- scf: Setup of Coulomb evaluator failed
-2272- type_coulomb_setupBoundaryConditions: Could not setup numerical thresholds
-2271- type_latticepoint_update: Could not generate lattice points
-2270- xtb_calculator_singlepoint: Electronic structure method terminated
-2269- scf: Setup of Coulomb evaluator failed
-2268- type_coulomb_setupBoundaryConditions: Could not setup numerical thresholds
-2267- type_latticepoint_update: Could not generate lattice points
-2266- xtb_calculator_singlepoint: Electronic structure method terminated
-2265- scf: Setup of Coulomb evaluator failed
-2264- type_coulomb_setupBoundaryConditions: Could not setup numerical thresholds
-2263- type_latticepoint_update: Could not generate lattice points
-2262- xtb_calculator_singlepoint: Electronic structure method terminated
-2261- scf: Setup of Coulomb evaluator failed
-2260- type_coulomb_setupBoundaryConditions: Could not setup numerical thresholds
-2259- type_latticepoint_update: Could not generate lattice points
-2258- xtb_calculator_singlepoint: Electronic structure method terminated
-2257- scf: Setup of Coulomb evaluator failed
-2256- type_coulomb_setupBoundaryConditions: Could not setup numerical thresholds
-2255- type_latticepoint_update: Could not generate lattice points
-2254- xtb_calculator_singlepoint: Electronic structure method terminated
-2253- scf: Setup of Coulomb evaluator failed
-2252- type_coulomb_setupBoundaryConditions: Could not setup numerical thresholds
-2251- type_latticepoint_update: Could not generate lattice points
-2250- xtb_calculator_singlepoint: Electronic structure method terminated
-2249- scf: Setup of Coulomb evaluator failed
-2248- type_coulomb_setupBoundaryConditions: Could not setup numerical thresholds
-2247- type_latticepoint_update: Could not generate lattice points
-2246- xtb_calculator_singlepoint: Electronic structure method terminated
-2245- scf: Setup of Coulomb evaluator failed
-2244- type_coulomb_setupBoundaryConditions: Could not setup numerical thresholds
-2243- type_latticepoint_update: Could not generate lattice points
-2242- xtb_calculator_singlepoint: Electronic structure method terminated
-2241- scf: Setup of Coulomb evaluator failed
-2240- type_coulomb_setupBoundaryConditions: Could not setup numerical thresholds
-2239- type_latticepoint_update: Could not generate lattice points
-2238- xtb_calculator_singlepoint: Electronic structure method terminated
-2237- scf: Setup of Coulomb evaluator failed
-2236- type_coulomb_setupBoundaryConditions: Could not setup numerical thresholds
-2235- type_latticepoint_update: Could not generate lattice points
-2234- xtb_calculator_singlepoint: Electronic structure method terminated
-2233- scf: Setup of Coulomb evaluator failed
-2232- type_coulomb_setupBoundaryConditions: Could not setup numerical thresholds
-2231- type_latticepoint_update: Could not generate lattice points
-2230- xtb_calculator_singlepoint: Electronic structure method terminated
-2229- scf: Setup of Coulomb evaluator failed
-2228- type_coulomb_setupBoundaryConditions: Could not setup numerical thresholds
-2227- type_latticepoint_update: Could not generate lattice points
-2226- xtb_calculator_singlepoint: Electronic structure method terminated
-2225- scf: Setup of Coulomb evaluator failed
-2224- type_coulomb_setupBoundaryConditions: Could not setup numerical thresholds
-2223- type_latticepoint_update: Could not generate lattice points
-2222- xtb_calculator_singlepoint: Electronic structure method terminated
-2221- scf: Setup of Coulomb evaluator failed
-2220- type_coulomb_setupBoundaryConditions: Could not setup numerical thresholds
-2219- type_latticepoint_update: Could not generate lattice points
-2218- xtb_calculator_singlepoint: Electronic structure method terminated
-2217- scf: Setup of Coulomb evaluator failed
-2216- type_coulomb_setupBoundaryConditions: Could not setup numerical thresholds
-2215- type_latticepoint_update: Could not generate lattice points
-2214- xtb_calculator_singlepoint: Electronic structure method terminated
-2213- scf: Setup of Coulomb evaluator failed
-2212- type_coulomb_setupBoundaryConditions: Could not setup numerical thresholds
-2211- type_latticepoint_update: Could not generate lattice points
-2210- xtb_calculator_singlepoint: Electronic structure method terminated
-2209- scf: Setup of Coulomb evaluator failed
-2208- type_coulomb_setupBoundaryConditions: Could not setup numerical thresholds
-2207- type_latticepoint_update: Could not generate lattice points
-2206- xtb_calculator_singlepoint: Electronic structure method terminated
-2205- scf: Setup of Coulomb evaluator failed
-2204- type_coulomb_setupBoundaryConditions: Could not setup numerical thresholds
-2203- type_latticepoint_update: Could not generate lattice points
-2202- xtb_calculator_singlepoint: Electronic structure method terminated
-2201- scf: Setup of Coulomb evaluator failed
-2200- type_coulomb_setupBoundaryConditions: Could not setup numerical thresholds
-2199- type_latticepoint_update: Could not generate lattice points
-2198- xtb_calculator_singlepoint: Electronic structure method terminated
-2197- scf: Setup of Coulomb evaluator failed
-2196- type_coulomb_setupBoundaryConditions: Could not setup numerical thresholds
-2195- type_latticepoint_update: Could not generate lattice points
-2194- xtb_calculator_singlepoint: Electronic structure method terminated
-2193- scf: Setup of Coulomb evaluator failed
-2192- type_coulomb_setupBoundaryConditions: Could not setup numerical thresholds
-2191- type_latticepoint_update: Could not generate lattice points
-2190- xtb_calculator_singlepoint: Electronic structure method terminated
-2189- scf: Setup of Coulomb evaluator failed
-2188- type_coulomb_setupBoundaryConditions: Could not setup numerical thresholds
-2187- type_latticepoint_update: Could not generate lattice points
-2186- xtb_calculator_singlepoint: Electronic structure method terminated
-2185- scf: Setup of Coulomb evaluator failed
-2184- type_coulomb_setupBoundaryConditions: Could not setup numerical thresholds
-2183- type_latticepoint_update: Could not generate lattice points
-2182- xtb_calculator_singlepoint: Electronic structure method terminated
-2181- scf: Setup of Coulomb evaluator failed
-2180- type_coulomb_setupBoundaryConditions: Could not setup numerical thresholds
-2179- type_latticepoint_update: Could not generate lattice points
-2178- xtb_calculator_singlepoint: Electronic structure method terminated
-2177- scf: Setup of Coulomb evaluator failed
-2176- type_coulomb_setupBoundaryConditions: Could not setup numerical thresholds
-2175- type_latticepoint_update: Could not generate lattice points
-2174- xtb_calculator_singlepoint: Electronic structure method terminated
-2173- scf: Setup of Coulomb evaluator failed
-2172- type_coulomb_setupBoundaryConditions: Could not setup numerical thresholds
-2171- type_latticepoint_update: Could not generate lattice points
-2170- xtb_calculator_singlepoint: Electronic structure method terminated
-2169- scf: Setup of Coulomb evaluator failed
-2168- type_coulomb_setupBoundaryConditions: Could not setup numerical thresholds
-2167- type_latticepoint_update: Could not generate lattice points
-2166- xtb_calculator_singlepoint: Electronic structure method terminated
-2165- scf: Setup of Coulomb evaluator failed
-2164- type_coulomb_setupBoundaryConditions: Could not setup numerical thresholds
-2163- type_latticepoint_update: Could not generate lattice points
-2162- xtb_calculator_singlepoint: Electronic structure method terminated
-2161- scf: Setup of Coulomb evaluator failed
-2160- type_coulomb_setupBoundaryConditions: Could not setup numerical thresholds
-2159- type_latticepoint_update: Could not generate lattice points
-2158- xtb_calculator_singlepoint: Electronic structure method terminated
-2157- scf: Setup of Coulomb evaluator failed
-2156- type_coulomb_setupBoundaryConditions: Could not setup numerical thresholds
-2155- type_latticepoint_update: Could not generate lattice points
-2154- xtb_calculator_singlepoint: Electronic structure method terminated
-2153- scf: Setup of Coulomb evaluator failed
-2152- type_coulomb_setupBoundaryConditions: Could not setup numerical thresholds
-2151- type_latticepoint_update: Could not generate lattice points
-2150- xtb_calculator_singlepoint: Electronic structure method terminated
-2149- scf: Setup of Coulomb evaluator failed
-2148- type_coulomb_setupBoundaryConditions: Could not setup numerical thresholds
-2147- type_latticepoint_update: Could not generate lattice points
-2146- xtb_calculator_singlepoint: Electronic structure method terminated
-2145- scf: Setup of Coulomb evaluator failed
-2144- type_coulomb_setupBoundaryConditions: Could not setup numerical thresholds
-2143- type_latticepoint_update: Could not generate lattice points
-2142- xtb_calculator_singlepoint: Electronic structure method terminated
-2141- scf: Setup of Coulomb evaluator failed
-2140- type_coulomb_setupBoundaryConditions: Could not setup numerical thresholds
-2139- type_latticepoint_update: Could not generate lattice points
-2138- xtb_calculator_singlepoint: Electronic structure method terminated
-2137- scf: Setup of Coulomb evaluator failed
-2136- type_coulomb_setupBoundaryConditions: Could not setup numerical thresholds
-2135- type_latticepoint_update: Could not generate lattice points
-2134- xtb_calculator_singlepoint: Electronic structure method terminated
-2133- scf: Setup of Coulomb evaluator failed
-2132- type_coulomb_setupBoundaryConditions: Could not setup numerical thresholds
-2131- type_latticepoint_update: Could not generate lattice points
-2130- xtb_calculator_singlepoint: Electronic structure method terminated
-2129- scf: Setup of Coulomb evaluator failed
-2128- type_coulomb_setupBoundaryConditions: Could not setup numerical thresholds
-2127- type_latticepoint_update: Could not generate lattice points
-2126- xtb_calculator_singlepoint: Electronic structure method terminated
-2125- scf: Setup of Coulomb evaluator failed
-2124- type_coulomb_setupBoundaryConditions: Could not setup numerical thresholds
-2123- type_latticepoint_update: Could not generate lattice points
-2122- xtb_calculator_singlepoint: Electronic structure method terminated
-2121- scf: Setup of Coulomb evaluator failed
-2120- type_coulomb_setupBoundaryConditions: Could not setup numerical thresholds
-2119- type_latticepoint_update: Could not generate lattice points
-2118- xtb_calculator_singlepoint: Electronic structure method terminated
-2117- scf: Setup of Coulomb evaluator failed
-2116- type_coulomb_setupBoundaryConditions: Could not setup numerical thresholds
-2115- type_latticepoint_update: Could not generate lattice points
-2114- xtb_calculator_singlepoint: Electronic structure method terminated
-2113- scf: Setup of Coulomb evaluator failed
-2112- type_coulomb_setupBoundaryConditions: Could not setup numerical thresholds
-2111- type_latticepoint_update: Could not generate lattice points
-2110- xtb_calculator_singlepoint: Electronic structure method terminated
-2109- scf: Setup of Coulomb evaluator failed
-2108- type_coulomb_setupBoundaryConditions: Could not setup numerical thresholds
-2107- type_latticepoint_update: Could not generate lattice points
-2106- xtb_calculator_singlepoint: Electronic structure method terminated
-2105- scf: Setup of Coulomb evaluator failed
-2104- type_coulomb_setupBoundaryConditions: Could not setup numerical thresholds
-2103- type_latticepoint_update: Could not generate lattice points
-2102- xtb_calculator_singlepoint: Electronic structure method terminated
-2101- scf: Setup of Coulomb evaluator failed
-2100- type_coulomb_setupBoundaryConditions: Could not setup numerical thresholds
-2099- type_latticepoint_update: Could not generate lattice points
-2098- xtb_calculator_singlepoint: Electronic structure method terminated
-2097- scf: Setup of Coulomb evaluator failed
-2096- type_coulomb_setupBoundaryConditions: Could not setup numerical thresholds
-2095- type_latticepoint_update: Could not generate lattice points
-2094- xtb_calculator_singlepoint: Electronic structure method terminated
-2093- scf: Setup of Coulomb evaluator failed
-2092- type_coulomb_setupBoundaryConditions: Could not setup numerical thresholds
-2091- type_latticepoint_update: Could not generate lattice points
-2090- xtb_calculator_singlepoint: Electronic structure method terminated
-2089- scf: Setup of Coulomb evaluator failed
-2088- type_coulomb_setupBoundaryConditions: Could not setup numerical thresholds
-2087- type_latticepoint_update: Could not generate lattice points
-2086- xtb_calculator_singlepoint: Electronic structure method terminated
-2085- scf: Setup of Coulomb evaluator failed
-2084- type_coulomb_setupBoundaryConditions: Could not setup numerical thresholds
-2083- type_latticepoint_update: Could not generate lattice points
-2082- xtb_calculator_singlepoint: Electronic structure method terminated
-2081- scf: Setup of Coulomb evaluator failed
-2080- type_coulomb_setupBoundaryConditions: Could not setup numerical thresholds
-2079- type_latticepoint_update: Could not generate lattice points
-2078- xtb_calculator_singlepoint: Electronic structure method terminated
-2077- scf: Setup of Coulomb evaluator failed
-2076- type_coulomb_setupBoundaryConditions: Could not setup numerical thresholds
-2075- type_latticepoint_update: Could not generate lattice points
-2074- xtb_calculator_singlepoint: Electronic structure method terminated
-2073- scf: Setup of Coulomb evaluator failed
-2072- type_coulomb_setupBoundaryConditions: Could not setup numerical thresholds
-2071- type_latticepoint_update: Could not generate lattice points
-2070- xtb_calculator_singlepoint: Electronic structure method terminated
-2069- scf: Setup of Coulomb evaluator failed
-2068- type_coulomb_setupBoundaryConditions: Could not setup numerical thresholds
-2067- type_latticepoint_update: Could not generate lattice points
-2066- xtb_calculator_singlepoint: Electronic structure method terminated
-2065- scf: Setup of Coulomb evaluator failed
-2064- type_coulomb_setupBoundaryConditions: Could not setup numerical thresholds
-2063- type_latticepoint_update: Could not generate lattice points
-2062- xtb_calculator_singlepoint: Electronic structure method terminated
-2061- scf: Setup of Coulomb evaluator failed
-2060- type_coulomb_setupBoundaryConditions: Could not setup numerical thresholds
-2059- type_latticepoint_update: Could not generate lattice points
-2058- xtb_calculator_singlepoint: Electronic structure method terminated
-2057- scf: Setup of Coulomb evaluator failed
-2056- type_coulomb_setupBoundaryConditions: Could not setup numerical thresholds
-2055- type_latticepoint_update: Could not generate lattice points
-2054- xtb_calculator_singlepoint: Electronic structure method terminated
-2053- scf: Setup of Coulomb evaluator failed
-2052- type_coulomb_setupBoundaryConditions: Could not setup numerical thresholds
-2051- type_latticepoint_update: Could not generate lattice points
-2050- xtb_calculator_singlepoint: Electronic structure method terminated
-2049- scf: Setup of Coulomb evaluator failed
-2048- type_coulomb_setupBoundaryConditions: Could not setup numerical thresholds
-2047- type_latticepoint_update: Could not generate lattice points
-2046- xtb_calculator_singlepoint: Electronic structure method terminated
-2045- scf: Setup of Coulomb evaluator failed
-2044- type_coulomb_setupBoundaryConditions: Could not setup numerical thresholds
-2043- type_latticepoint_update: Could not generate lattice points
-2042- xtb_calculator_singlepoint: Electronic structure method terminated
-2041- scf: Setup of Coulomb evaluator failed
-2040- type_coulomb_setupBoundaryConditions: Could not setup numerical thresholds
-2039- type_latticepoint_update: Could not generate lattice points
-2038- xtb_calculator_singlepoint: Electronic structure method terminated
-2037- scf: Setup of Coulomb evaluator failed
-2036- type_coulomb_setupBoundaryConditions: Could not setup numerical thresholds
-2035- type_latticepoint_update: Could not generate lattice points
-2034- xtb_calculator_singlepoint: Electronic structure method terminated
-2033- scf: Setup of Coulomb evaluator failed
-2032- type_coulomb_setupBoundaryConditions: Could not setup numerical thresholds
-2031- type_latticepoint_update: Could not generate lattice points
-2030- xtb_calculator_singlepoint: Electronic structure method terminated
-2029- scf: Setup of Coulomb evaluator failed
-2028- type_coulomb_setupBoundaryConditions: Could not setup numerical thresholds
-2027- type_latticepoint_update: Could not generate lattice points
-2026- xtb_calculator_singlepoint: Electronic structure method terminated
-2025- scf: Setup of Coulomb evaluator failed
-2024- type_coulomb_setupBoundaryConditions: Could not setup numerical thresholds
-2023- type_latticepoint_update: Could not generate lattice points
-2022- xtb_calculator_singlepoint: Electronic structure method terminated
-2021- scf: Setup of Coulomb evaluator failed
-2020- type_coulomb_setupBoundaryConditions: Could not setup numerical thresholds
-2019- type_latticepoint_update: Could not generate lattice points
-2018- xtb_calculator_singlepoint: Electronic structure method terminated
-2017- scf: Setup of Coulomb evaluator failed
-2016- type_coulomb_setupBoundaryConditions: Could not setup numerical thresholds
-2015- type_latticepoint_update: Could not generate lattice points
-2014- xtb_calculator_singlepoint: Electronic structure method terminated
-2013- scf: Setup of Coulomb evaluator failed
-2012- type_coulomb_setupBoundaryConditions: Could not setup numerical thresholds
-2011- type_latticepoint_update: Could not generate lattice points
-2010- xtb_calculator_singlepoint: Electronic structure method terminated
-2009- scf: Setup of Coulomb evaluator failed
-2008- type_coulomb_setupBoundaryConditions: Could not setup numerical thresholds
-2007- type_latticepoint_update: Could not generate lattice points
-2006- xtb_calculator_singlepoint: Electronic structure method terminated
-2005- scf: Setup of Coulomb evaluator failed
-2004- type_coulomb_setupBoundaryConditions: Could not setup numerical thresholds
-2003- type_latticepoint_update: Could not generate lattice points
-2002- xtb_calculator_singlepoint: Electronic structure method terminated
-2001- scf: Setup of Coulomb evaluator failed
-2000- type_coulomb_setupBoundaryConditions: Could not setup numerical thresholds
-1999- type_latticepoint_update: Could not generate lattice points
-1998- xtb_calculator_singlepoint: Electronic structure method terminated
-1997- scf: Setup of Coulomb evaluator failed
-1996- type_coulomb_setupBoundaryConditions: Could not setup numerical thresholds
-1995- type_latticepoint_update: Could not generate lattice points
-1994- xtb_calculator_singlepoint: Electronic structure method terminated
-1993- scf: Setup of Coulomb evaluator failed
-1992- type_coulomb_setupBoundaryConditions: Could not setup numerical thresholds
-1991- type_latticepoint_update: Could not generate lattice points
-1990- xtb_calculator_singlepoint: Electronic structure method terminated
-1989- scf: Setup of Coulomb evaluator failed
-1988- type_coulomb_setupBoundaryConditions: Could not setup numerical thresholds
-1987- type_latticepoint_update: Could not generate lattice points
-1986- xtb_calculator_singlepoint: Electronic structure method terminated
-1985- scf: Setup of Coulomb evaluator failed
-1984- type_coulomb_setupBoundaryConditions: Could not setup numerical thresholds
-1983- type_latticepoint_update: Could not generate lattice points
-1982- xtb_calculator_singlepoint: Electronic structure method terminated
-1981- scf: Setup of Coulomb evaluator failed
-1980- type_coulomb_setupBoundaryConditions: Could not setup numerical thresholds
-1979- type_latticepoint_update: Could not generate lattice points
-1978- xtb_calculator_singlepoint: Electronic structure method terminated
-1977- scf: Setup of Coulomb evaluator failed
-1976- type_coulomb_setupBoundaryConditions: Could not setup numerical thresholds
-1975- type_latticepoint_update: Could not generate lattice points
-1974- xtb_calculator_singlepoint: Electronic structure method terminated
-1973- scf: Setup of Coulomb evaluator failed
-1972- type_coulomb_setupBoundaryConditions: Could not setup numerical thresholds
-1971- type_latticepoint_update: Could not generate lattice points
-1970- xtb_calculator_singlepoint: Electronic structure method terminated
-1969- scf: Setup of Coulomb evaluator failed
-1968- type_coulomb_setupBoundaryConditions: Could not setup numerical thresholds
-1967- type_latticepoint_update: Could not generate lattice points
-1966- xtb_calculator_singlepoint: Electronic structure method terminated
-1965- scf: Setup of Coulomb evaluator failed
-1964- type_coulomb_setupBoundaryConditions: Could not setup numerical thresholds
-1963- type_latticepoint_update: Could not generate lattice points
-1962- xtb_calculator_singlepoint: Electronic structure method terminated
-1961- scf: Setup of Coulomb evaluator failed
-1960- type_coulomb_setupBoundaryConditions: Could not setup numerical thresholds
-1959- type_latticepoint_update: Could not generate lattice points
-1958- xtb_calculator_singlepoint: Electronic structure method terminated
-1957- scf: Setup of Coulomb evaluator failed
-1956- type_coulomb_setupBoundaryConditions: Could not setup numerical thresholds
-1955- type_latticepoint_update: Could not generate lattice points
-1954- xtb_calculator_singlepoint: Electronic structure method terminated
-1953- scf: Setup of Coulomb evaluator failed
-1952- type_coulomb_setupBoundaryConditions: Could not setup numerical thresholds
-1951- type_latticepoint_update: Could not generate lattice points
-1950- xtb_calculator_singlepoint: Electronic structure method terminated
-1949- scf: Setup of Coulomb evaluator failed
-1948- type_coulomb_setupBoundaryConditions: Could not setup numerical thresholds
-1947- type_latticepoint_update: Could not generate lattice points
-1946- xtb_calculator_singlepoint: Electronic structure method terminated
-1945- scf: Setup of Coulomb evaluator failed
-1944- type_coulomb_setupBoundaryConditions: Could not setup numerical thresholds
-1943- type_latticepoint_update: Could not generate lattice points
-1942- xtb_calculator_singlepoint: Electronic structure method terminated
-1941- scf: Setup of Coulomb evaluator failed
-1940- type_coulomb_setupBoundaryConditions: Could not setup numerical thresholds
-1939- type_latticepoint_update: Could not generate lattice points
-1938- xtb_calculator_singlepoint: Electronic structure method terminated
-1937- scf: Setup of Coulomb evaluator failed
-1936- type_coulomb_setupBoundaryConditions: Could not setup numerical thresholds
-1935- type_latticepoint_update: Could not generate lattice points
-1934- xtb_calculator_singlepoint: Electronic structure method terminated
-1933- scf: Setup of Coulomb evaluator failed
-1932- type_coulomb_setupBoundaryConditions: Could not setup numerical thresholds
-1931- type_latticepoint_update: Could not generate lattice points
-1930- xtb_calculator_singlepoint: Electronic structure method terminated
-1929- scf: Setup of Coulomb evaluator failed
-1928- type_coulomb_setupBoundaryConditions: Could not setup numerical thresholds
-1927- type_latticepoint_update: Could not generate lattice points
-1926- xtb_calculator_singlepoint: Electronic structure method terminated
-1925- scf: Setup of Coulomb evaluator failed
-1924- type_coulomb_setupBoundaryConditions: Could not setup numerical thresholds
-1923- type_latticepoint_update: Could not generate lattice points
-1922- xtb_calculator_singlepoint: Electronic structure method terminated
-1921- scf: Setup of Coulomb evaluator failed
-1920- type_coulomb_setupBoundaryConditions: Could not setup numerical thresholds
-1919- type_latticepoint_update: Could not generate lattice points
-1918- xtb_calculator_singlepoint: Electronic structure method terminated
-1917- scf: Setup of Coulomb evaluator failed
-1916- type_coulomb_setupBoundaryConditions: Could not setup numerical thresholds
-1915- type_latticepoint_update: Could not generate lattice points
-1914- xtb_calculator_singlepoint: Electronic structure method terminated
-1913- scf: Setup of Coulomb evaluator failed
-1912- type_coulomb_setupBoundaryConditions: Could not setup numerical thresholds
-1911- type_latticepoint_update: Could not generate lattice points
-1910- xtb_calculator_singlepoint: Electronic structure method terminated
-1909- scf: Setup of Coulomb evaluator failed
-1908- type_coulomb_setupBoundaryConditions: Could not setup numerical thresholds
-1907- type_latticepoint_update: Could not generate lattice points
-1906- xtb_calculator_singlepoint: Electronic structure method terminated
-1905- scf: Setup of Coulomb evaluator failed
-1904- type_coulomb_setupBoundaryConditions: Could not setup numerical thresholds
-1903- type_latticepoint_update: Could not generate lattice points
-1902- xtb_calculator_singlepoint: Electronic structure method terminated
-1901- scf: Setup of Coulomb evaluator failed
-1900- type_coulomb_setupBoundaryConditions: Could not setup numerical thresholds
-1899- type_latticepoint_update: Could not generate lattice points
-1898- xtb_calculator_singlepoint: Electronic structure method terminated
-1897- scf: Setup of Coulomb evaluator failed
-1896- type_coulomb_setupBoundaryConditions: Could not setup numerical thresholds
-1895- type_latticepoint_update: Could not generate lattice points
-1894- xtb_calculator_singlepoint: Electronic structure method terminated
-1893- scf: Setup of Coulomb evaluator failed
-1892- type_coulomb_setupBoundaryConditions: Could not setup numerical thresholds
-1891- type_latticepoint_update: Could not generate lattice points
-1890- xtb_calculator_singlepoint: Electronic structure method terminated
-1889- scf: Setup of Coulomb evaluator failed
-1888- type_coulomb_setupBoundaryConditions: Could not setup numerical thresholds
-1887- type_latticepoint_update: Could not generate lattice points
-1886- xtb_calculator_singlepoint: Electronic structure method terminated
-1885- scf: Setup of Coulomb evaluator failed
-1884- type_coulomb_setupBoundaryConditions: Could not setup numerical thresholds
-1883- type_latticepoint_update: Could not generate lattice points
-1882- xtb_calculator_singlepoint: Electronic structure method terminated
-1881- scf: Setup of Coulomb evaluator failed
-1880- type_coulomb_setupBoundaryConditions: Could not setup numerical thresholds
-1879- type_latticepoint_update: Could not generate lattice points
-1878- xtb_calculator_singlepoint: Electronic structure method terminated
-1877- scf: Setup of Coulomb evaluator failed
-1876- type_coulomb_setupBoundaryConditions: Could not setup numerical thresholds
-1875- type_latticepoint_update: Could not generate lattice points
-1874- xtb_calculator_singlepoint: Electronic structure method terminated
-1873- scf: Setup of Coulomb evaluator failed
-1872- type_coulomb_setupBoundaryConditions: Could not setup numerical thresholds
-1871- type_latticepoint_update: Could not generate lattice points
-1870- xtb_calculator_singlepoint: Electronic structure method terminated
-1869- scf: Setup of Coulomb evaluator failed
-1868- type_coulomb_setupBoundaryConditions: Could not setup numerical thresholds
-1867- type_latticepoint_update: Could not generate lattice points
-1866- xtb_calculator_singlepoint: Electronic structure method terminated
-1865- scf: Setup of Coulomb evaluator failed
-1864- type_coulomb_setupBoundaryConditions: Could not setup numerical thresholds
-1863- type_latticepoint_update: Could not generate lattice points
-1862- xtb_calculator_singlepoint: Electronic structure method terminated
-1861- scf: Setup of Coulomb evaluator failed
-1860- type_coulomb_setupBoundaryConditions: Could not setup numerical thresholds
-1859- type_latticepoint_update: Could not generate lattice points
-1858- xtb_calculator_singlepoint: Electronic structure method terminated
-1857- scf: Setup of Coulomb evaluator failed
-1856- type_coulomb_setupBoundaryConditions: Could not setup numerical thresholds
-1855- type_latticepoint_update: Could not generate lattice points
-1854- xtb_calculator_singlepoint: Electronic structure method terminated
-1853- scf: Setup of Coulomb evaluator failed
-1852- type_coulomb_setupBoundaryConditions: Could not setup numerical thresholds
-1851- type_latticepoint_update: Could not generate lattice points
-1850- xtb_calculator_singlepoint: Electronic structure method terminated
-1849- scf: Setup of Coulomb evaluator failed
-1848- type_coulomb_setupBoundaryConditions: Could not setup numerical thresholds
-1847- type_latticepoint_update: Could not generate lattice points
-1846- xtb_calculator_singlepoint: Electronic structure method terminated
-1845- scf: Setup of Coulomb evaluator failed
-1844- type_coulomb_setupBoundaryConditions: Could not setup numerical thresholds
-1843- type_latticepoint_update: Could not generate lattice points
-1842- xtb_calculator_singlepoint: Electronic structure method terminated
-1841- scf: Setup of Coulomb evaluator failed
-1840- type_coulomb_setupBoundaryConditions: Could not setup numerical thresholds
-1839- type_latticepoint_update: Could not generate lattice points
-1838- xtb_calculator_singlepoint: Electronic structure method terminated
-1837- scf: Setup of Coulomb evaluator failed
-1836- type_coulomb_setupBoundaryConditions: Could not setup numerical thresholds
-1835- type_latticepoint_update: Could not generate lattice points
-1834- xtb_calculator_singlepoint: Electronic structure method terminated
-1833- scf: Setup of Coulomb evaluator failed
-1832- type_coulomb_setupBoundaryConditions: Could not setup numerical thresholds
-1831- type_latticepoint_update: Could not generate lattice points
-1830- xtb_calculator_singlepoint: Electronic structure method terminated
-1829- scf: Setup of Coulomb evaluator failed
-1828- type_coulomb_setupBoundaryConditions: Could not setup numerical thresholds
-1827- type_latticepoint_update: Could not generate lattice points
-1826- xtb_calculator_singlepoint: Electronic structure method terminated
-1825- scf: Setup of Coulomb evaluator failed
-1824- type_coulomb_setupBoundaryConditions: Could not setup numerical thresholds
-1823- type_latticepoint_update: Could not generate lattice points
-1822- xtb_calculator_singlepoint: Electronic structure method terminated
-1821- scf: Setup of Coulomb evaluator failed
-1820- type_coulomb_setupBoundaryConditions: Could not setup numerical thresholds
-1819- type_latticepoint_update: Could not generate lattice points
-1818- xtb_calculator_singlepoint: Electronic structure method terminated
-1817- scf: Setup of Coulomb evaluator failed
-1816- type_coulomb_setupBoundaryConditions: Could not setup numerical thresholds
-1815- type_latticepoint_update: Could not generate lattice points
-1814- xtb_calculator_singlepoint: Electronic structure method terminated
-1813- scf: Setup of Coulomb evaluator failed
-1812- type_coulomb_setupBoundaryConditions: Could not setup numerical thresholds
-1811- type_latticepoint_update: Could not generate lattice points
-1810- xtb_calculator_singlepoint: Electronic structure method terminated
-1809- scf: Setup of Coulomb evaluator failed
-1808- type_coulomb_setupBoundaryConditions: Could not setup numerical thresholds
-1807- type_latticepoint_update: Could not generate lattice points
-1806- xtb_calculator_singlepoint: Electronic structure method terminated
-1805- scf: Setup of Coulomb evaluator failed
-1804- type_coulomb_setupBoundaryConditions: Could not setup numerical thresholds
-1803- type_latticepoint_update: Could not generate lattice points
-1802- xtb_calculator_singlepoint: Electronic structure method terminated
-1801- scf: Setup of Coulomb evaluator failed
-1800- type_coulomb_setupBoundaryConditions: Could not setup numerical thresholds
-1799- type_latticepoint_update: Could not generate lattice points
-1798- xtb_calculator_singlepoint: Electronic structure method terminated
-1797- scf: Setup of Coulomb evaluator failed
-1796- type_coulomb_setupBoundaryConditions: Could not setup numerical thresholds
-1795- type_latticepoint_update: Could not generate lattice points
-1794- xtb_calculator_singlepoint: Electronic structure method terminated
-1793- scf: Setup of Coulomb evaluator failed
-1792- type_coulomb_setupBoundaryConditions: Could not setup numerical thresholds
-1791- type_latticepoint_update: Could not generate lattice points
-1790- xtb_calculator_singlepoint: Electronic structure method terminated
-1789- scf: Setup of Coulomb evaluator failed
-1788- type_coulomb_setupBoundaryConditions: Could not setup numerical thresholds
-1787- type_latticepoint_update: Could not generate lattice points
-1786- xtb_calculator_singlepoint: Electronic structure method terminated
-1785- scf: Setup of Coulomb evaluator failed
-1784- type_coulomb_setupBoundaryConditions: Could not setup numerical thresholds
-1783- type_latticepoint_update: Could not generate lattice points
-1782- xtb_calculator_singlepoint: Electronic structure method terminated
-1781- scf: Setup of Coulomb evaluator failed
-1780- type_coulomb_setupBoundaryConditions: Could not setup numerical thresholds
-1779- type_latticepoint_update: Could not generate lattice points
-1778- xtb_calculator_singlepoint: Electronic structure method terminated
-1777- scf: Setup of Coulomb evaluator failed
-1776- type_coulomb_setupBoundaryConditions: Could not setup numerical thresholds
-1775- type_latticepoint_update: Could not generate lattice points
-1774- xtb_calculator_singlepoint: Electronic structure method terminated
-1773- scf: Setup of Coulomb evaluator failed
-1772- type_coulomb_setupBoundaryConditions: Could not setup numerical thresholds
-1771- type_latticepoint_update: Could not generate lattice points
-1770- xtb_calculator_singlepoint: Electronic structure method terminated
-1769- scf: Setup of Coulomb evaluator failed
-1768- type_coulomb_setupBoundaryConditions: Could not setup numerical thresholds
-1767- type_latticepoint_update: Could not generate lattice points
-1766- xtb_calculator_singlepoint: Electronic structure method terminated
-1765- scf: Setup of Coulomb evaluator failed
-1764- type_coulomb_setupBoundaryConditions: Could not setup numerical thresholds
-1763- type_latticepoint_update: Could not generate lattice points
-1762- xtb_calculator_singlepoint: Electronic structure method terminated
-1761- scf: Setup of Coulomb evaluator failed
-1760- type_coulomb_setupBoundaryConditions: Could not setup numerical thresholds
-1759- type_latticepoint_update: Could not generate lattice points
-1758- xtb_calculator_singlepoint: Electronic structure method terminated
-1757- scf: Setup of Coulomb evaluator failed
-1756- type_coulomb_setupBoundaryConditions: Could not setup numerical thresholds
-1755- type_latticepoint_update: Could not generate lattice points
-1754- xtb_calculator_singlepoint: Electronic structure method terminated
-1753- scf: Setup of Coulomb evaluator failed
-1752- type_coulomb_setupBoundaryConditions: Could not setup numerical thresholds
-1751- type_latticepoint_update: Could not generate lattice points
-1750- xtb_calculator_singlepoint: Electronic structure method terminated
-1749- scf: Setup of Coulomb evaluator failed
-1748- type_coulomb_setupBoundaryConditions: Could not setup numerical thresholds
-1747- type_latticepoint_update: Could not generate lattice points
-1746- xtb_calculator_singlepoint: Electronic structure method terminated
-1745- scf: Setup of Coulomb evaluator failed
-1744- type_coulomb_setupBoundaryConditions: Could not setup numerical thresholds
-1743- type_latticepoint_update: Could not generate lattice points
-1742- xtb_calculator_singlepoint: Electronic structure method terminated
-1741- scf: Setup of Coulomb evaluator failed
-1740- type_coulomb_setupBoundaryConditions: Could not setup numerical thresholds
-1739- type_latticepoint_update: Could not generate lattice points
-1738- xtb_calculator_singlepoint: Electronic structure method terminated
-1737- scf: Setup of Coulomb evaluator failed
-1736- type_coulomb_setupBoundaryConditions: Could not setup numerical thresholds
-1735- type_latticepoint_update: Could not generate lattice points
-1734- xtb_calculator_singlepoint: Electronic structure method terminated
-1733- scf: Setup of Coulomb evaluator failed
-1732- type_coulomb_setupBoundaryConditions: Could not setup numerical thresholds
-1731- type_latticepoint_update: Could not generate lattice points
-1730- xtb_calculator_singlepoint: Electronic structure method terminated
-1729- scf: Setup of Coulomb evaluator failed
-1728- type_coulomb_setupBoundaryConditions: Could not setup numerical thresholds
-1727- type_latticepoint_update: Could not generate lattice points
-1726- xtb_calculator_singlepoint: Electronic structure method terminated
-1725- scf: Setup of Coulomb evaluator failed
-1724- type_coulomb_setupBoundaryConditions: Could not setup numerical thresholds
-1723- type_latticepoint_update: Could not generate lattice points
-1722- xtb_calculator_singlepoint: Electronic structure method terminated
-1721- scf: Setup of Coulomb evaluator failed
-1720- type_coulomb_setupBoundaryConditions: Could not setup numerical thresholds
-1719- type_latticepoint_update: Could not generate lattice points
-1718- xtb_calculator_singlepoint: Electronic structure method terminated
-1717- scf: Setup of Coulomb evaluator failed
-1716- type_coulomb_setupBoundaryConditions: Could not setup numerical thresholds
-1715- type_latticepoint_update: Could not generate lattice points
-1714- xtb_calculator_singlepoint: Electronic structure method terminated
-1713- scf: Setup of Coulomb evaluator failed
-1712- type_coulomb_setupBoundaryConditions: Could not setup numerical thresholds
-1711- type_latticepoint_update: Could not generate lattice points
-1710- xtb_calculator_singlepoint: Electronic structure method terminated
-1709- scf: Setup of Coulomb evaluator failed
-1708- type_coulomb_setupBoundaryConditions: Could not setup numerical thresholds
-1707- type_latticepoint_update: Could not generate lattice points
-1706- xtb_calculator_singlepoint: Electronic structure method terminated
-1705- scf: Setup of Coulomb evaluator failed
-1704- type_coulomb_setupBoundaryConditions: Could not setup numerical thresholds
-1703- type_latticepoint_update: Could not generate lattice points
-1702- xtb_calculator_singlepoint: Electronic structure method terminated
-1701- scf: Setup of Coulomb evaluator failed
-1700- type_coulomb_setupBoundaryConditions: Could not setup numerical thresholds
-1699- type_latticepoint_update: Could not generate lattice points
-1698- xtb_calculator_singlepoint: Electronic structure method terminated
-1697- scf: Setup of Coulomb evaluator failed
-1696- type_coulomb_setupBoundaryConditions: Could not setup numerical thresholds
-1695- type_latticepoint_update: Could not generate lattice points
-1694- xtb_calculator_singlepoint: Electronic structure method terminated
-1693- scf: Setup of Coulomb evaluator failed
-1692- type_coulomb_setupBoundaryConditions: Could not setup numerical thresholds
-1691- type_latticepoint_update: Could not generate lattice points
-1690- xtb_calculator_singlepoint: Electronic structure method terminated
-1689- scf: Setup of Coulomb evaluator failed
-1688- type_coulomb_setupBoundaryConditions: Could not setup numerical thresholds
-1687- type_latticepoint_update: Could not generate lattice points
-1686- xtb_calculator_singlepoint: Electronic structure method terminated
-1685- scf: Setup of Coulomb evaluator failed
-1684- type_coulomb_setupBoundaryConditions: Could not setup numerical thresholds
-1683- type_latticepoint_update: Could not generate lattice points
-1682- xtb_calculator_singlepoint: Electronic structure method terminated
-1681- scf: Setup of Coulomb evaluator failed
-1680- type_coulomb_setupBoundaryConditions: Could not setup numerical thresholds
-1679- type_latticepoint_update: Could not generate lattice points
-1678- xtb_calculator_singlepoint: Electronic structure method terminated
-1677- scf: Setup of Coulomb evaluator failed
-1676- type_coulomb_setupBoundaryConditions: Could not setup numerical thresholds
-1675- type_latticepoint_update: Could not generate lattice points
-1674- xtb_calculator_singlepoint: Electronic structure method terminated
-1673- scf: Setup of Coulomb evaluator failed
-1672- type_coulomb_setupBoundaryConditions: Could not setup numerical thresholds
-1671- type_latticepoint_update: Could not generate lattice points
-1670- xtb_calculator_singlepoint: Electronic structure method terminated
-1669- scf: Setup of Coulomb evaluator failed
-1668- type_coulomb_setupBoundaryConditions: Could not setup numerical thresholds
-1667- type_latticepoint_update: Could not generate lattice points
-1666- xtb_calculator_singlepoint: Electronic structure method terminated
-1665- scf: Setup of Coulomb evaluator failed
-1664- type_coulomb_setupBoundaryConditions: Could not setup numerical thresholds
-1663- type_latticepoint_update: Could not generate lattice points
-1662- xtb_calculator_singlepoint: Electronic structure method terminated
-1661- scf: Setup of Coulomb evaluator failed
-1660- type_coulomb_setupBoundaryConditions: Could not setup numerical thresholds
-1659- type_latticepoint_update: Could not generate lattice points
-1658- xtb_calculator_singlepoint: Electronic structure method terminated
-1657- scf: Setup of Coulomb evaluator failed
-1656- type_coulomb_setupBoundaryConditions: Could not setup numerical thresholds
-1655- type_latticepoint_update: Could not generate lattice points
-1654- xtb_calculator_singlepoint: Electronic structure method terminated
-1653- scf: Setup of Coulomb evaluator failed
-1652- type_coulomb_setupBoundaryConditions: Could not setup numerical thresholds
-1651- type_latticepoint_update: Could not generate lattice points
-1650- xtb_calculator_singlepoint: Electronic structure method terminated
-1649- scf: Setup of Coulomb evaluator failed
-1648- type_coulomb_setupBoundaryConditions: Could not setup numerical thresholds
-1647- type_latticepoint_update: Could not generate lattice points
-1646- xtb_calculator_singlepoint: Electronic structure method terminated
-1645- scf: Setup of Coulomb evaluator failed
-1644- type_coulomb_setupBoundaryConditions: Could not setup numerical thresholds
-1643- type_latticepoint_update: Could not generate lattice points
-1642- xtb_calculator_singlepoint: Electronic structure method terminated
-1641- scf: Setup of Coulomb evaluator failed
-1640- type_coulomb_setupBoundaryConditions: Could not setup numerical thresholds
-1639- type_latticepoint_update: Could not generate lattice points
-1638- xtb_calculator_singlepoint: Electronic structure method terminated
-1637- scf: Setup of Coulomb evaluator failed
-1636- type_coulomb_setupBoundaryConditions: Could not setup numerical thresholds
-1635- type_latticepoint_update: Could not generate lattice points
-1634- xtb_calculator_singlepoint: Electronic structure method terminated
-1633- scf: Setup of Coulomb evaluator failed
-1632- type_coulomb_setupBoundaryConditions: Could not setup numerical thresholds
-1631- type_latticepoint_update: Could not generate lattice points
-1630- xtb_calculator_singlepoint: Electronic structure method terminated
-1629- scf: Setup of Coulomb evaluator failed
-1628- type_coulomb_setupBoundaryConditions: Could not setup numerical thresholds
-1627- type_latticepoint_update: Could not generate lattice points
-1626- xtb_calculator_singlepoint: Electronic structure method terminated
-1625- scf: Setup of Coulomb evaluator failed
-1624- type_coulomb_setupBoundaryConditions: Could not setup numerical thresholds
-1623- type_latticepoint_update: Could not generate lattice points
-1622- xtb_calculator_singlepoint: Electronic structure method terminated
-1621- scf: Setup of Coulomb evaluator failed
-1620- type_coulomb_setupBoundaryConditions: Could not setup numerical thresholds
-1619- type_latticepoint_update: Could not generate lattice points
-1618- xtb_calculator_singlepoint: Electronic structure method terminated
-1617- scf: Setup of Coulomb evaluator failed
-1616- type_coulomb_setupBoundaryConditions: Could not setup numerical thresholds
-1615- type_latticepoint_update: Could not generate lattice points
-1614- xtb_calculator_singlepoint: Electronic structure method terminated
-1613- scf: Setup of Coulomb evaluator failed
-1612- type_coulomb_setupBoundaryConditions: Could not setup numerical thresholds
-1611- type_latticepoint_update: Could not generate lattice points
-1610- xtb_calculator_singlepoint: Electronic structure method terminated
-1609- scf: Setup of Coulomb evaluator failed
-1608- type_coulomb_setupBoundaryConditions: Could not setup numerical thresholds
-1607- type_latticepoint_update: Could not generate lattice points
-1606- xtb_calculator_singlepoint: Electronic structure method terminated
-1605- scf: Setup of Coulomb evaluator failed
-1604- type_coulomb_setupBoundaryConditions: Could not setup numerical thresholds
-1603- type_latticepoint_update: Could not generate lattice points
-1602- xtb_calculator_singlepoint: Electronic structure method terminated
-1601- scf: Setup of Coulomb evaluator failed
-1600- type_coulomb_setupBoundaryConditions: Could not setup numerical thresholds
-1599- type_latticepoint_update: Could not generate lattice points
-1598- xtb_calculator_singlepoint: Electronic structure method terminated
-1597- scf: Setup of Coulomb evaluator failed
-1596- type_coulomb_setupBoundaryConditions: Could not setup numerical thresholds
-1595- type_latticepoint_update: Could not generate lattice points
-1594- xtb_calculator_singlepoint: Electronic structure method terminated
-1593- scf: Setup of Coulomb evaluator failed
-1592- type_coulomb_setupBoundaryConditions: Could not setup numerical thresholds
-1591- type_latticepoint_update: Could not generate lattice points
-1590- xtb_calculator_singlepoint: Electronic structure method terminated
-1589- scf: Setup of Coulomb evaluator failed
-1588- type_coulomb_setupBoundaryConditions: Could not setup numerical thresholds
-1587- type_latticepoint_update: Could not generate lattice points
-1586- xtb_calculator_singlepoint: Electronic structure method terminated
-1585- scf: Setup of Coulomb evaluator failed
-1584- type_coulomb_setupBoundaryConditions: Could not setup numerical thresholds
-1583- type_latticepoint_update: Could not generate lattice points
-1582- xtb_calculator_singlepoint: Electronic structure method terminated
-1581- scf: Setup of Coulomb evaluator failed
-1580- type_coulomb_setupBoundaryConditions: Could not setup numerical thresholds
-1579- type_latticepoint_update: Could not generate lattice points
-1578- xtb_calculator_singlepoint: Electronic structure method terminated
-1577- scf: Setup of Coulomb evaluator failed
-1576- type_coulomb_setupBoundaryConditions: Could not setup numerical thresholds
-1575- type_latticepoint_update: Could not generate lattice points
-1574- xtb_calculator_singlepoint: Electronic structure method terminated
-1573- scf: Setup of Coulomb evaluator failed
-1572- type_coulomb_setupBoundaryConditions: Could not setup numerical thresholds
-1571- type_latticepoint_update: Could not generate lattice points
-1570- xtb_calculator_singlepoint: Electronic structure method terminated
-1569- scf: Setup of Coulomb evaluator failed
-1568- type_coulomb_setupBoundaryConditions: Could not setup numerical thresholds
-1567- type_latticepoint_update: Could not generate lattice points
-1566- xtb_calculator_singlepoint: Electronic structure method terminated
-1565- scf: Setup of Coulomb evaluator failed
-1564- type_coulomb_setupBoundaryConditions: Could not setup numerical thresholds
-1563- type_latticepoint_update: Could not generate lattice points
-1562- xtb_calculator_singlepoint: Electronic structure method terminated
-1561- scf: Setup of Coulomb evaluator failed
-1560- type_coulomb_setupBoundaryConditions: Could not setup numerical thresholds
-1559- type_latticepoint_update: Could not generate lattice points
-1558- xtb_calculator_singlepoint: Electronic structure method terminated
-1557- scf: Setup of Coulomb evaluator failed
-1556- type_coulomb_setupBoundaryConditions: Could not setup numerical thresholds
-1555- type_latticepoint_update: Could not generate lattice points
-1554- xtb_calculator_singlepoint: Electronic structure method terminated
-1553- scf: Setup of Coulomb evaluator failed
-1552- type_coulomb_setupBoundaryConditions: Could not setup numerical thresholds
-1551- type_latticepoint_update: Could not generate lattice points
-1550- xtb_calculator_singlepoint: Electronic structure method terminated
-1549- scf: Setup of Coulomb evaluator failed
-1548- type_coulomb_setupBoundaryConditions: Could not setup numerical thresholds
-1547- type_latticepoint_update: Could not generate lattice points
-1546- xtb_calculator_singlepoint: Electronic structure method terminated
-1545- scf: Setup of Coulomb evaluator failed
-1544- type_coulomb_setupBoundaryConditions: Could not setup numerical thresholds
-1543- type_latticepoint_update: Could not generate lattice points
-1542- xtb_calculator_singlepoint: Electronic structure method terminated
-1541- scf: Setup of Coulomb evaluator failed
-1540- type_coulomb_setupBoundaryConditions: Could not setup numerical thresholds
-1539- type_latticepoint_update: Could not generate lattice points
-1538- xtb_calculator_singlepoint: Electronic structure method terminated
-1537- scf: Setup of Coulomb evaluator failed
-1536- type_coulomb_setupBoundaryConditions: Could not setup numerical thresholds
-1535- type_latticepoint_update: Could not generate lattice points
-1534- xtb_calculator_singlepoint: Electronic structure method terminated
-1533- scf: Setup of Coulomb evaluator failed
-1532- type_coulomb_setupBoundaryConditions: Could not setup numerical thresholds
-1531- type_latticepoint_update: Could not generate lattice points
-1530- xtb_calculator_singlepoint: Electronic structure method terminated
-1529- scf: Setup of Coulomb evaluator failed
-1528- type_coulomb_setupBoundaryConditions: Could not setup numerical thresholds
-1527- type_latticepoint_update: Could not generate lattice points
-1526- xtb_calculator_singlepoint: Electronic structure method terminated
-1525- scf: Setup of Coulomb evaluator failed
-1524- type_coulomb_setupBoundaryConditions: Could not setup numerical thresholds
-1523- type_latticepoint_update: Could not generate lattice points
-1522- xtb_calculator_singlepoint: Electronic structure method terminated
-1521- scf: Setup of Coulomb evaluator failed
-1520- type_coulomb_setupBoundaryConditions: Could not setup numerical thresholds
-1519- type_latticepoint_update: Could not generate lattice points
-1518- xtb_calculator_singlepoint: Electronic structure method terminated
-1517- scf: Setup of Coulomb evaluator failed
-1516- type_coulomb_setupBoundaryConditions: Could not setup numerical thresholds
-1515- type_latticepoint_update: Could not generate lattice points
-1514- xtb_calculator_singlepoint: Electronic structure method terminated
-1513- scf: Setup of Coulomb evaluator failed
-1512- type_coulomb_setupBoundaryConditions: Could not setup numerical thresholds
-1511- type_latticepoint_update: Could not generate lattice points
-1510- xtb_calculator_singlepoint: Electronic structure method terminated
-1509- scf: Setup of Coulomb evaluator failed
-1508- type_coulomb_setupBoundaryConditions: Could not setup numerical thresholds
-1507- type_latticepoint_update: Could not generate lattice points
-1506- xtb_calculator_singlepoint: Electronic structure method terminated
-1505- scf: Setup of Coulomb evaluator failed
-1504- type_coulomb_setupBoundaryConditions: Could not setup numerical thresholds
-1503- type_latticepoint_update: Could not generate lattice points
-1502- xtb_calculator_singlepoint: Electronic structure method terminated
-1501- scf: Setup of Coulomb evaluator failed
-1500- type_coulomb_setupBoundaryConditions: Could not setup numerical thresholds
-1499- type_latticepoint_update: Could not generate lattice points
-1498- xtb_calculator_singlepoint: Electronic structure method terminated
-1497- scf: Setup of Coulomb evaluator failed
-1496- type_coulomb_setupBoundaryConditions: Could not setup numerical thresholds
-1495- type_latticepoint_update: Could not generate lattice points
-1494- xtb_calculator_singlepoint: Electronic structure method terminated
-1493- scf: Setup of Coulomb evaluator failed
-1492- type_coulomb_setupBoundaryConditions: Could not setup numerical thresholds
-1491- type_latticepoint_update: Could not generate lattice points
-1490- xtb_calculator_singlepoint: Electronic structure method terminated
-1489- scf: Setup of Coulomb evaluator failed
-1488- type_coulomb_setupBoundaryConditions: Could not setup numerical thresholds
-1487- type_latticepoint_update: Could not generate lattice points
-1486- xtb_calculator_singlepoint: Electronic structure method terminated
-1485- scf: Setup of Coulomb evaluator failed
-1484- type_coulomb_setupBoundaryConditions: Could not setup numerical thresholds
-1483- type_latticepoint_update: Could not generate lattice points
-1482- xtb_calculator_singlepoint: Electronic structure method terminated
-1481- scf: Setup of Coulomb evaluator failed
-1480- type_coulomb_setupBoundaryConditions: Could not setup numerical thresholds
-1479- type_latticepoint_update: Could not generate lattice points
-1478- xtb_calculator_singlepoint: Electronic structure method terminated
-1477- scf: Setup of Coulomb evaluator failed
-1476- type_coulomb_setupBoundaryConditions: Could not setup numerical thresholds
-1475- type_latticepoint_update: Could not generate lattice points
-1474- xtb_calculator_singlepoint: Electronic structure method terminated
-1473- scf: Setup of Coulomb evaluator failed
-1472- type_coulomb_setupBoundaryConditions: Could not setup numerical thresholds
-1471- type_latticepoint_update: Could not generate lattice points
-1470- xtb_calculator_singlepoint: Electronic structure method terminated
-1469- scf: Setup of Coulomb evaluator failed
-1468- type_coulomb_setupBoundaryConditions: Could not setup numerical thresholds
-1467- type_latticepoint_update: Could not generate lattice points
-1466- xtb_calculator_singlepoint: Electronic structure method terminated
-1465- scf: Setup of Coulomb evaluator failed
-1464- type_coulomb_setupBoundaryConditions: Could not setup numerical thresholds
-1463- type_latticepoint_update: Could not generate lattice points
-1462- xtb_calculator_singlepoint: Electronic structure method terminated
-1461- scf: Setup of Coulomb evaluator failed
-1460- type_coulomb_setupBoundaryConditions: Could not setup numerical thresholds
-1459- type_latticepoint_update: Could not generate lattice points
-1458- xtb_calculator_singlepoint: Electronic structure method terminated
-1457- scf: Setup of Coulomb evaluator failed
-1456- type_coulomb_setupBoundaryConditions: Could not setup numerical thresholds
-1455- type_latticepoint_update: Could not generate lattice points
-1454- xtb_calculator_singlepoint: Electronic structure method terminated
-1453- scf: Setup of Coulomb evaluator failed
-1452- type_coulomb_setupBoundaryConditions: Could not setup numerical thresholds
-1451- type_latticepoint_update: Could not generate lattice points
-1450- xtb_calculator_singlepoint: Electronic structure method terminated
-1449- scf: Setup of Coulomb evaluator failed
-1448- type_coulomb_setupBoundaryConditions: Could not setup numerical thresholds
-1447- type_latticepoint_update: Could not generate lattice points
-1446- xtb_calculator_singlepoint: Electronic structure method terminated
-1445- scf: Setup of Coulomb evaluator failed
-1444- type_coulomb_setupBoundaryConditions: Could not setup numerical thresholds
-1443- type_latticepoint_update: Could not generate lattice points
-1442- xtb_calculator_singlepoint: Electronic structure method terminated
-1441- scf: Setup of Coulomb evaluator failed
-1440- type_coulomb_setupBoundaryConditions: Could not setup numerical thresholds
-1439- type_latticepoint_update: Could not generate lattice points
-1438- xtb_calculator_singlepoint: Electronic structure method terminated
-1437- scf: Setup of Coulomb evaluator failed
-1436- type_coulomb_setupBoundaryConditions: Could not setup numerical thresholds
-1435- type_latticepoint_update: Could not generate lattice points
-1434- xtb_calculator_singlepoint: Electronic structure method terminated
-1433- scf: Setup of Coulomb evaluator failed
-1432- type_coulomb_setupBoundaryConditions: Could not setup numerical thresholds
-1431- type_latticepoint_update: Could not generate lattice points
-1430- xtb_calculator_singlepoint: Electronic structure method terminated
-1429- scf: Setup of Coulomb evaluator failed
-1428- type_coulomb_setupBoundaryConditions: Could not setup numerical thresholds
-1427- type_latticepoint_update: Could not generate lattice points
-1426- xtb_calculator_singlepoint: Electronic structure method terminated
-1425- scf: Setup of Coulomb evaluator failed
-1424- type_coulomb_setupBoundaryConditions: Could not setup numerical thresholds
-1423- type_latticepoint_update: Could not generate lattice points
-1422- xtb_calculator_singlepoint: Electronic structure method terminated
-1421- scf: Setup of Coulomb evaluator failed
-1420- type_coulomb_setupBoundaryConditions: Could not setup numerical thresholds
-1419- type_latticepoint_update: Could not generate lattice points
-1418- xtb_calculator_singlepoint: Electronic structure method terminated
-1417- scf: Setup of Coulomb evaluator failed
-1416- type_coulomb_setupBoundaryConditions: Could not setup numerical thresholds
-1415- type_latticepoint_update: Could not generate lattice points
-1414- xtb_calculator_singlepoint: Electronic structure method terminated
-1413- scf: Setup of Coulomb evaluator failed
-1412- type_coulomb_setupBoundaryConditions: Could not setup numerical thresholds
-1411- type_latticepoint_update: Could not generate lattice points
-1410- xtb_calculator_singlepoint: Electronic structure method terminated
-1409- scf: Setup of Coulomb evaluator failed
-1408- type_coulomb_setupBoundaryConditions: Could not setup numerical thresholds
-1407- type_latticepoint_update: Could not generate lattice points
-1406- xtb_calculator_singlepoint: Electronic structure method terminated
-1405- scf: Setup of Coulomb evaluator failed
-1404- type_coulomb_setupBoundaryConditions: Could not setup numerical thresholds
-1403- type_latticepoint_update: Could not generate lattice points
-1402- xtb_calculator_singlepoint: Electronic structure method terminated
-1401- scf: Setup of Coulomb evaluator failed
-1400- type_coulomb_setupBoundaryConditions: Could not setup numerical thresholds
-1399- type_latticepoint_update: Could not generate lattice points
-1398- xtb_calculator_singlepoint: Electronic structure method terminated
-1397- scf: Setup of Coulomb evaluator failed
-1396- type_coulomb_setupBoundaryConditions: Could not setup numerical thresholds
-1395- type_latticepoint_update: Could not generate lattice points
-1394- xtb_calculator_singlepoint: Electronic structure method terminated
-1393- scf: Setup of Coulomb evaluator failed
-1392- type_coulomb_setupBoundaryConditions: Could not setup numerical thresholds
-1391- type_latticepoint_update: Could not generate lattice points
-1390- xtb_calculator_singlepoint: Electronic structure method terminated
-1389- scf: Setup of Coulomb evaluator failed
-1388- type_coulomb_setupBoundaryConditions: Could not setup numerical thresholds
-1387- type_latticepoint_update: Could not generate lattice points
-1386- xtb_calculator_singlepoint: Electronic structure method terminated
-1385- scf: Setup of Coulomb evaluator failed
-1384- type_coulomb_setupBoundaryConditions: Could not setup numerical thresholds
-1383- type_latticepoint_update: Could not generate lattice points
-1382- xtb_calculator_singlepoint: Electronic structure method terminated
-1381- scf: Setup of Coulomb evaluator failed
-1380- type_coulomb_setupBoundaryConditions: Could not setup numerical thresholds
-1379- type_latticepoint_update: Could not generate lattice points
-1378- xtb_calculator_singlepoint: Electronic structure method terminated
-1377- scf: Setup of Coulomb evaluator failed
-1376- type_coulomb_setupBoundaryConditions: Could not setup numerical thresholds
-1375- type_latticepoint_update: Could not generate lattice points
-1374- xtb_calculator_singlepoint: Electronic structure method terminated
-1373- scf: Setup of Coulomb evaluator failed
-1372- type_coulomb_setupBoundaryConditions: Could not setup numerical thresholds
-1371- type_latticepoint_update: Could not generate lattice points
-1370- xtb_calculator_singlepoint: Electronic structure method terminated
-1369- scf: Setup of Coulomb evaluator failed
-1368- type_coulomb_setupBoundaryConditions: Could not setup numerical thresholds
-1367- type_latticepoint_update: Could not generate lattice points
-1366- xtb_calculator_singlepoint: Electronic structure method terminated
-1365- scf: Setup of Coulomb evaluator failed
-1364- type_coulomb_setupBoundaryConditions: Could not setup numerical thresholds
-1363- type_latticepoint_update: Could not generate lattice points
-1362- xtb_calculator_singlepoint: Electronic structure method terminated
-1361- scf: Setup of Coulomb evaluator failed
-1360- type_coulomb_setupBoundaryConditions: Could not setup numerical thresholds
-1359- type_latticepoint_update: Could not generate lattice points
-1358- xtb_calculator_singlepoint: Electronic structure method terminated
-1357- scf: Setup of Coulomb evaluator failed
-1356- type_coulomb_setupBoundaryConditions: Could not setup numerical thresholds
-1355- type_latticepoint_update: Could not generate lattice points
-1354- xtb_calculator_singlepoint: Electronic structure method terminated
-1353- scf: Setup of Coulomb evaluator failed
-1352- type_coulomb_setupBoundaryConditions: Could not setup numerical thresholds
-1351- type_latticepoint_update: Could not generate lattice points
-1350- xtb_calculator_singlepoint: Electronic structure method terminated
-1349- scf: Setup of Coulomb evaluator failed
-1348- type_coulomb_setupBoundaryConditions: Could not setup numerical thresholds
-1347- type_latticepoint_update: Could not generate lattice points
-1346- xtb_calculator_singlepoint: Electronic structure method terminated
-1345- scf: Setup of Coulomb evaluator failed
-1344- type_coulomb_setupBoundaryConditions: Could not setup numerical thresholds
-1343- type_latticepoint_update: Could not generate lattice points
-1342- xtb_calculator_singlepoint: Electronic structure method terminated
-1341- scf: Setup of Coulomb evaluator failed
-1340- type_coulomb_setupBoundaryConditions: Could not setup numerical thresholds
-1339- type_latticepoint_update: Could not generate lattice points
-1338- xtb_calculator_singlepoint: Electronic structure method terminated
-1337- scf: Setup of Coulomb evaluator failed
-1336- type_coulomb_setupBoundaryConditions: Could not setup numerical thresholds
-1335- type_latticepoint_update: Could not generate lattice points
-1334- xtb_calculator_singlepoint: Electronic structure method terminated
-1333- scf: Setup of Coulomb evaluator failed
-1332- type_coulomb_setupBoundaryConditions: Could not setup numerical thresholds
-1331- type_latticepoint_update: Could not generate lattice points
-1330- xtb_calculator_singlepoint: Electronic structure method terminated
-1329- scf: Setup of Coulomb evaluator failed
-1328- type_coulomb_setupBoundaryConditions: Could not setup numerical thresholds
-1327- type_latticepoint_update: Could not generate lattice points
-1326- xtb_calculator_singlepoint: Electronic structure method terminated
-1325- scf: Setup of Coulomb evaluator failed
-1324- type_coulomb_setupBoundaryConditions: Could not setup numerical thresholds
-1323- type_latticepoint_update: Could not generate lattice points
-1322- xtb_calculator_singlepoint: Electronic structure method terminated
-1321- scf: Setup of Coulomb evaluator failed
-1320- type_coulomb_setupBoundaryConditions: Could not setup numerical thresholds
-1319- type_latticepoint_update: Could not generate lattice points
-1318- xtb_calculator_singlepoint: Electronic structure method terminated
-1317- scf: Setup of Coulomb evaluator failed
-1316- type_coulomb_setupBoundaryConditions: Could not setup numerical thresholds
-1315- type_latticepoint_update: Could not generate lattice points
-1314- xtb_calculator_singlepoint: Electronic structure method terminated
-1313- scf: Setup of Coulomb evaluator failed
-1312- type_coulomb_setupBoundaryConditions: Could not setup numerical thresholds
-1311- type_latticepoint_update: Could not generate lattice points
-1310- xtb_calculator_singlepoint: Electronic structure method terminated
-1309- scf: Setup of Coulomb evaluator failed
-1308- type_coulomb_setupBoundaryConditions: Could not setup numerical thresholds
-1307- type_latticepoint_update: Could not generate lattice points
-1306- xtb_calculator_singlepoint: Electronic structure method terminated
-1305- scf: Setup of Coulomb evaluator failed
-1304- type_coulomb_setupBoundaryConditions: Could not setup numerical thresholds
-1303- type_latticepoint_update: Could not generate lattice points
-1302- xtb_calculator_singlepoint: Electronic structure method terminated
-1301- scf: Setup of Coulomb evaluator failed
-1300- type_coulomb_setupBoundaryConditions: Could not setup numerical thresholds
-1299- type_latticepoint_update: Could not generate lattice points
-1298- xtb_calculator_singlepoint: Electronic structure method terminated
-1297- scf: Setup of Coulomb evaluator failed
-1296- type_coulomb_setupBoundaryConditions: Could not setup numerical thresholds
-1295- type_latticepoint_update: Could not generate lattice points
-1294- xtb_calculator_singlepoint: Electronic structure method terminated
-1293- scf: Setup of Coulomb evaluator failed
-1292- type_coulomb_setupBoundaryConditions: Could not setup numerical thresholds
-1291- type_latticepoint_update: Could not generate lattice points
-1290- xtb_calculator_singlepoint: Electronic structure method terminated
-1289- scf: Setup of Coulomb evaluator failed
-1288- type_coulomb_setupBoundaryConditions: Could not setup numerical thresholds
-1287- type_latticepoint_update: Could not generate lattice points
-1286- xtb_calculator_singlepoint: Electronic structure method terminated
-1285- scf: Setup of Coulomb evaluator failed
-1284- type_coulomb_setupBoundaryConditions: Could not setup numerical thresholds
-1283- type_latticepoint_update: Could not generate lattice points
-1282- xtb_calculator_singlepoint: Electronic structure method terminated
-1281- scf: Setup of Coulomb evaluator failed
-1280- type_coulomb_setupBoundaryConditions: Could not setup numerical thresholds
-1279- type_latticepoint_update: Could not generate lattice points
-1278- xtb_calculator_singlepoint: Electronic structure method terminated
-1277- scf: Setup of Coulomb evaluator failed
-1276- type_coulomb_setupBoundaryConditions: Could not setup numerical thresholds
-1275- type_latticepoint_update: Could not generate lattice points
-1274- xtb_calculator_singlepoint: Electronic structure method terminated
-1273- scf: Setup of Coulomb evaluator failed
-1272- type_coulomb_setupBoundaryConditions: Could not setup numerical thresholds
-1271- type_latticepoint_update: Could not generate lattice points
-1270- xtb_calculator_singlepoint: Electronic structure method terminated
-1269- scf: Setup of Coulomb evaluator failed
-1268- type_coulomb_setupBoundaryConditions: Could not setup numerical thresholds
-1267- type_latticepoint_update: Could not generate lattice points
-1266- xtb_calculator_singlepoint: Electronic structure method terminated
-1265- scf: Setup of Coulomb evaluator failed
-1264- type_coulomb_setupBoundaryConditions: Could not setup numerical thresholds
-1263- type_latticepoint_update: Could not generate lattice points
-1262- xtb_calculator_singlepoint: Electronic structure method terminated
-1261- scf: Setup of Coulomb evaluator failed
-1260- type_coulomb_setupBoundaryConditions: Could not setup numerical thresholds
-1259- type_latticepoint_update: Could not generate lattice points
-1258- xtb_calculator_singlepoint: Electronic structure method terminated
-1257- scf: Setup of Coulomb evaluator failed
-1256- type_coulomb_setupBoundaryConditions: Could not setup numerical thresholds
-1255- type_latticepoint_update: Could not generate lattice points
-1254- xtb_calculator_singlepoint: Electronic structure method terminated
-1253- scf: Setup of Coulomb evaluator failed
-1252- type_coulomb_setupBoundaryConditions: Could not setup numerical thresholds
-1251- type_latticepoint_update: Could not generate lattice points
-1250- xtb_calculator_singlepoint: Electronic structure method terminated
-1249- scf: Setup of Coulomb evaluator failed
-1248- type_coulomb_setupBoundaryConditions: Could not setup numerical thresholds
-1247- type_latticepoint_update: Could not generate lattice points
-1246- xtb_calculator_singlepoint: Electronic structure method terminated
-1245- scf: Setup of Coulomb evaluator failed
-1244- type_coulomb_setupBoundaryConditions: Could not setup numerical thresholds
-1243- type_latticepoint_update: Could not generate lattice points
-1242- xtb_calculator_singlepoint: Electronic structure method terminated
-1241- scf: Setup of Coulomb evaluator failed
-1240- type_coulomb_setupBoundaryConditions: Could not setup numerical thresholds
-1239- type_latticepoint_update: Could not generate lattice points
-1238- xtb_calculator_singlepoint: Electronic structure method terminated
-1237- scf: Setup of Coulomb evaluator failed
-1236- type_coulomb_setupBoundaryConditions: Could not setup numerical thresholds
-1235- type_latticepoint_update: Could not generate lattice points
-1234- xtb_calculator_singlepoint: Electronic structure method terminated
-1233- scf: Setup of Coulomb evaluator failed
-1232- type_coulomb_setupBoundaryConditions: Could not setup numerical thresholds
-1231- type_latticepoint_update: Could not generate lattice points
-1230- xtb_calculator_singlepoint: Electronic structure method terminated
-1229- scf: Setup of Coulomb evaluator failed
-1228- type_coulomb_setupBoundaryConditions: Could not setup numerical thresholds
-1227- type_latticepoint_update: Could not generate lattice points
-1226- xtb_calculator_singlepoint: Electronic structure method terminated
-1225- scf: Setup of Coulomb evaluator failed
-1224- type_coulomb_setupBoundaryConditions: Could not setup numerical thresholds
-1223- type_latticepoint_update: Could not generate lattice points
-1222- xtb_calculator_singlepoint: Electronic structure method terminated
-1221- scf: Setup of Coulomb evaluator failed
-1220- type_coulomb_setupBoundaryConditions: Could not setup numerical thresholds
-1219- type_latticepoint_update: Could not generate lattice points
-1218- xtb_calculator_singlepoint: Electronic structure method terminated
-1217- scf: Setup of Coulomb evaluator failed
-1216- type_coulomb_setupBoundaryConditions: Could not setup numerical thresholds
-1215- type_latticepoint_update: Could not generate lattice points
-1214- xtb_calculator_singlepoint: Electronic structure method terminated
-1213- scf: Setup of Coulomb evaluator failed
-1212- type_coulomb_setupBoundaryConditions: Could not setup numerical thresholds
-1211- type_latticepoint_update: Could not generate lattice points
-1210- xtb_calculator_singlepoint: Electronic structure method terminated
-1209- scf: Setup of Coulomb evaluator failed
-1208- type_coulomb_setupBoundaryConditions: Could not setup numerical thresholds
-1207- type_latticepoint_update: Could not generate lattice points
-1206- xtb_calculator_singlepoint: Electronic structure method terminated
-1205- scf: Setup of Coulomb evaluator failed
-1204- type_coulomb_setupBoundaryConditions: Could not setup numerical thresholds
-1203- type_latticepoint_update: Could not generate lattice points
-1202- xtb_calculator_singlepoint: Electronic structure method terminated
-1201- scf: Setup of Coulomb evaluator failed
-1200- type_coulomb_setupBoundaryConditions: Could not setup numerical thresholds
-1199- type_latticepoint_update: Could not generate lattice points
-1198- xtb_calculator_singlepoint: Electronic structure method terminated
-1197- scf: Setup of Coulomb evaluator failed
-1196- type_coulomb_setupBoundaryConditions: Could not setup numerical thresholds
-1195- type_latticepoint_update: Could not generate lattice points
-1194- xtb_calculator_singlepoint: Electronic structure method terminated
-1193- scf: Setup of Coulomb evaluator failed
-1192- type_coulomb_setupBoundaryConditions: Could not setup numerical thresholds
-1191- type_latticepoint_update: Could not generate lattice points
-1190- xtb_calculator_singlepoint: Electronic structure method terminated
-1189- scf: Setup of Coulomb evaluator failed
-1188- type_coulomb_setupBoundaryConditions: Could not setup numerical thresholds
-1187- type_latticepoint_update: Could not generate lattice points
-1186- xtb_calculator_singlepoint: Electronic structure method terminated
-1185- scf: Setup of Coulomb evaluator failed
-1184- type_coulomb_setupBoundaryConditions: Could not setup numerical thresholds
-1183- type_latticepoint_update: Could not generate lattice points
-1182- xtb_calculator_singlepoint: Electronic structure method terminated
-1181- scf: Setup of Coulomb evaluator failed
-1180- type_coulomb_setupBoundaryConditions: Could not setup numerical thresholds
-1179- type_latticepoint_update: Could not generate lattice points
-1178- xtb_calculator_singlepoint: Electronic structure method terminated
-1177- scf: Setup of Coulomb evaluator failed
-1176- type_coulomb_setupBoundaryConditions: Could not setup numerical thresholds
-1175- type_latticepoint_update: Could not generate lattice points
-1174- xtb_calculator_singlepoint: Electronic structure method terminated
-1173- scf: Setup of Coulomb evaluator failed
-1172- type_coulomb_setupBoundaryConditions: Could not setup numerical thresholds
-1171- type_latticepoint_update: Could not generate lattice points
-1170- xtb_calculator_singlepoint: Electronic structure method terminated
-1169- scf: Setup of Coulomb evaluator failed
-1168- type_coulomb_setupBoundaryConditions: Could not setup numerical thresholds
-1167- type_latticepoint_update: Could not generate lattice points
-1166- xtb_calculator_singlepoint: Electronic structure method terminated
-1165- scf: Setup of Coulomb evaluator failed
-1164- type_coulomb_setupBoundaryConditions: Could not setup numerical thresholds
-1163- type_latticepoint_update: Could not generate lattice points
-1162- xtb_calculator_singlepoint: Electronic structure method terminated
-1161- scf: Setup of Coulomb evaluator failed
-1160- type_coulomb_setupBoundaryConditions: Could not setup numerical thresholds
-1159- type_latticepoint_update: Could not generate lattice points
-1158- xtb_calculator_singlepoint: Electronic structure method terminated
-1157- scf: Setup of Coulomb evaluator failed
-1156- type_coulomb_setupBoundaryConditions: Could not setup numerical thresholds
-1155- type_latticepoint_update: Could not generate lattice points
-1154- xtb_calculator_singlepoint: Electronic structure method terminated
-1153- scf: Setup of Coulomb evaluator failed
-1152- type_coulomb_setupBoundaryConditions: Could not setup numerical thresholds
-1151- type_latticepoint_update: Could not generate lattice points
-1150- xtb_calculator_singlepoint: Electronic structure method terminated
-1149- scf: Setup of Coulomb evaluator failed
-1148- type_coulomb_setupBoundaryConditions: Could not setup numerical thresholds
-1147- type_latticepoint_update: Could not generate lattice points
-1146- xtb_calculator_singlepoint: Electronic structure method terminated
-1145- scf: Setup of Coulomb evaluator failed
-1144- type_coulomb_setupBoundaryConditions: Could not setup numerical thresholds
-1143- type_latticepoint_update: Could not generate lattice points
-1142- xtb_calculator_singlepoint: Electronic structure method terminated
-1141- scf: Setup of Coulomb evaluator failed
-1140- type_coulomb_setupBoundaryConditions: Could not setup numerical thresholds
-1139- type_latticepoint_update: Could not generate lattice points
-1138- xtb_calculator_singlepoint: Electronic structure method terminated
-1137- scf: Setup of Coulomb evaluator failed
-1136- type_coulomb_setupBoundaryConditions: Could not setup numerical thresholds
-1135- type_latticepoint_update: Could not generate lattice points
-1134- xtb_calculator_singlepoint: Electronic structure method terminated
-1133- scf: Setup of Coulomb evaluator failed
-1132- type_coulomb_setupBoundaryConditions: Could not setup numerical thresholds
-1131- type_latticepoint_update: Could not generate lattice points
-1130- xtb_calculator_singlepoint: Electronic structure method terminated
-1129- scf: Setup of Coulomb evaluator failed
-1128- type_coulomb_setupBoundaryConditions: Could not setup numerical thresholds
-1127- type_latticepoint_update: Could not generate lattice points
-1126- xtb_calculator_singlepoint: Electronic structure method terminated
-1125- scf: Setup of Coulomb evaluator failed
-1124- type_coulomb_setupBoundaryConditions: Could not setup numerical thresholds
-1123- type_latticepoint_update: Could not generate lattice points
-1122- xtb_calculator_singlepoint: Electronic structure method terminated
-1121- scf: Setup of Coulomb evaluator failed
-1120- type_coulomb_setupBoundaryConditions: Could not setup numerical thresholds
-1119- type_latticepoint_update: Could not generate lattice points
-1118- xtb_calculator_singlepoint: Electronic structure method terminated
-1117- scf: Setup of Coulomb evaluator failed
-1116- type_coulomb_setupBoundaryConditions: Could not setup numerical thresholds
-1115- type_latticepoint_update: Could not generate lattice points
-1114- xtb_calculator_singlepoint: Electronic structure method terminated
-1113- scf: Setup of Coulomb evaluator failed
-1112- type_coulomb_setupBoundaryConditions: Could not setup numerical thresholds
-1111- type_latticepoint_update: Could not generate lattice points
-1110- xtb_calculator_singlepoint: Electronic structure method terminated
-1109- scf: Setup of Coulomb evaluator failed
-1108- type_coulomb_setupBoundaryConditions: Could not setup numerical thresholds
-1107- type_latticepoint_update: Could not generate lattice points
-1106- xtb_calculator_singlepoint: Electronic structure method terminated
-1105- scf: Setup of Coulomb evaluator failed
-1104- type_coulomb_setupBoundaryConditions: Could not setup numerical thresholds
-1103- type_latticepoint_update: Could not generate lattice points
-1102- xtb_calculator_singlepoint: Electronic structure method terminated
-1101- scf: Setup of Coulomb evaluator failed
-1100- type_coulomb_setupBoundaryConditions: Could not setup numerical thresholds
-1099- type_latticepoint_update: Could not generate lattice points
-1098- xtb_calculator_singlepoint: Electronic structure method terminated
-1097- scf: Setup of Coulomb evaluator failed
-1096- type_coulomb_setupBoundaryConditions: Could not setup numerical thresholds
-1095- type_latticepoint_update: Could not generate lattice points
-1094- xtb_calculator_singlepoint: Electronic structure method terminated
-1093- scf: Setup of Coulomb evaluator failed
-1092- type_coulomb_setupBoundaryConditions: Could not setup numerical thresholds
-1091- type_latticepoint_update: Could not generate lattice points
-1090- xtb_calculator_singlepoint: Electronic structure method terminated
-1089- scf: Setup of Coulomb evaluator failed
-1088- type_coulomb_setupBoundaryConditions: Could not setup numerical thresholds
-1087- type_latticepoint_update: Could not generate lattice points
-1086- xtb_calculator_singlepoint: Electronic structure method terminated
-1085- scf: Setup of Coulomb evaluator failed
-1084- type_coulomb_setupBoundaryConditions: Could not setup numerical thresholds
-1083- type_latticepoint_update: Could not generate lattice points
-1082- xtb_calculator_singlepoint: Electronic structure method terminated
-1081- scf: Setup of Coulomb evaluator failed
-1080- type_coulomb_setupBoundaryConditions: Could not setup numerical thresholds
-1079- type_latticepoint_update: Could not generate lattice points
-1078- xtb_calculator_singlepoint: Electronic structure method terminated
-1077- scf: Setup of Coulomb evaluator failed
-1076- type_coulomb_setupBoundaryConditions: Could not setup numerical thresholds
-1075- type_latticepoint_update: Could not generate lattice points
-1074- xtb_calculator_singlepoint: Electronic structure method terminated
-1073- scf: Setup of Coulomb evaluator failed
-1072- type_coulomb_setupBoundaryConditions: Could not setup numerical thresholds
-1071- type_latticepoint_update: Could not generate lattice points
-1070- xtb_calculator_singlepoint: Electronic structure method terminated
-1069- scf: Setup of Coulomb evaluator failed
-1068- type_coulomb_setupBoundaryConditions: Could not setup numerical thresholds
-1067- type_latticepoint_update: Could not generate lattice points
-1066- xtb_calculator_singlepoint: Electronic structure method terminated
-1065- scf: Setup of Coulomb evaluator failed
-1064- type_coulomb_setupBoundaryConditions: Could not setup numerical thresholds
-1063- type_latticepoint_update: Could not generate lattice points
-1062- xtb_calculator_singlepoint: Electronic structure method terminated
-1061- scf: Setup of Coulomb evaluator failed
-1060- type_coulomb_setupBoundaryConditions: Could not setup numerical thresholds
-1059- type_latticepoint_update: Could not generate lattice points
-1058- xtb_calculator_singlepoint: Electronic structure method terminated
-1057- scf: Setup of Coulomb evaluator failed
-1056- type_coulomb_setupBoundaryConditions: Could not setup numerical thresholds
-1055- type_latticepoint_update: Could not generate lattice points
-1054- xtb_calculator_singlepoint: Electronic structure method terminated
-1053- scf: Setup of Coulomb evaluator failed
-1052- type_coulomb_setupBoundaryConditions: Could not setup numerical thresholds
-1051- type_latticepoint_update: Could not generate lattice points
-1050- xtb_calculator_singlepoint: Electronic structure method terminated
-1049- scf: Setup of Coulomb evaluator failed
-1048- type_coulomb_setupBoundaryConditions: Could not setup numerical thresholds
-1047- type_latticepoint_update: Could not generate lattice points
-1046- xtb_calculator_singlepoint: Electronic structure method terminated
-1045- scf: Setup of Coulomb evaluator failed
-1044- type_coulomb_setupBoundaryConditions: Could not setup numerical thresholds
-1043- type_latticepoint_update: Could not generate lattice points
-1042- xtb_calculator_singlepoint: Electronic structure method terminated
-1041- scf: Setup of Coulomb evaluator failed
-1040- type_coulomb_setupBoundaryConditions: Could not setup numerical thresholds
-1039- type_latticepoint_update: Could not generate lattice points
-1038- xtb_calculator_singlepoint: Electronic structure method terminated
-1037- scf: Setup of Coulomb evaluator failed
-1036- type_coulomb_setupBoundaryConditions: Could not setup numerical thresholds
-1035- type_latticepoint_update: Could not generate lattice points
-1034- xtb_calculator_singlepoint: Electronic structure method terminated
-1033- scf: Setup of Coulomb evaluator failed
-1032- type_coulomb_setupBoundaryConditions: Could not setup numerical thresholds
-1031- type_latticepoint_update: Could not generate lattice points
-1030- xtb_calculator_singlepoint: Electronic structure method terminated
-1029- scf: Setup of Coulomb evaluator failed
-1028- type_coulomb_setupBoundaryConditions: Could not setup numerical thresholds
-1027- type_latticepoint_update: Could not generate lattice points
-1026- xtb_calculator_singlepoint: Electronic structure method terminated
-1025- scf: Setup of Coulomb evaluator failed
-1024- type_coulomb_setupBoundaryConditions: Could not setup numerical thresholds
-1023- type_latticepoint_update: Could not generate lattice points
-1022- xtb_calculator_singlepoint: Electronic structure method terminated
-1021- scf: Setup of Coulomb evaluator failed
-1020- type_coulomb_setupBoundaryConditions: Could not setup numerical thresholds
-1019- type_latticepoint_update: Could not generate lattice points
-1018- xtb_calculator_singlepoint: Electronic structure method terminated
-1017- scf: Setup of Coulomb evaluator failed
-1016- type_coulomb_setupBoundaryConditions: Could not setup numerical thresholds
-1015- type_latticepoint_update: Could not generate lattice points
-1014- xtb_calculator_singlepoint: Electronic structure method terminated
-1013- scf: Setup of Coulomb evaluator failed
-1012- type_coulomb_setupBoundaryConditions: Could not setup numerical thresholds
-1011- type_latticepoint_update: Could not generate lattice points
-1010- xtb_calculator_singlepoint: Electronic structure method terminated
-1009- scf: Setup of Coulomb evaluator failed
-1008- type_coulomb_setupBoundaryConditions: Could not setup numerical thresholds
-1007- type_latticepoint_update: Could not generate lattice points
-1006- xtb_calculator_singlepoint: Electronic structure method terminated
-1005- scf: Setup of Coulomb evaluator failed
-1004- type_coulomb_setupBoundaryConditions: Could not setup numerical thresholds
-1003- type_latticepoint_update: Could not generate lattice points
-1002- xtb_calculator_singlepoint: Electronic structure method terminated
-1001- scf: Setup of Coulomb evaluator failed
-1000- type_coulomb_setupBoundaryConditions: Could not setup numerical thresholds
-999- type_latticepoint_update: Could not generate lattice points
-998- xtb_calculator_singlepoint: Electronic structure method terminated
-997- scf: Setup of Coulomb evaluator failed
-996- type_coulomb_setupBoundaryConditions: Could not setup numerical thresholds
-995- type_latticepoint_update: Could not generate lattice points
-994- xtb_calculator_singlepoint: Electronic structure method terminated
-993- scf: Setup of Coulomb evaluator failed
-992- type_coulomb_setupBoundaryConditions: Could not setup numerical thresholds
-991- type_latticepoint_update: Could not generate lattice points
-990- xtb_calculator_singlepoint: Electronic structure method terminated
-989- scf: Setup of Coulomb evaluator failed
-988- type_coulomb_setupBoundaryConditions: Could not setup numerical thresholds
-987- type_latticepoint_update: Could not generate lattice points
-986- xtb_calculator_singlepoint: Electronic structure method terminated
-985- scf: Setup of Coulomb evaluator failed
-984- type_coulomb_setupBoundaryConditions: Could not setup numerical thresholds
-983- type_latticepoint_update: Could not generate lattice points
-982- xtb_calculator_singlepoint: Electronic structure method terminated
-981- scf: Setup of Coulomb evaluator failed
-980- type_coulomb_setupBoundaryConditions: Could not setup numerical thresholds
-979- type_latticepoint_update: Could not generate lattice points
-978- xtb_calculator_singlepoint: Electronic structure method terminated
-977- scf: Setup of Coulomb evaluator failed
-976- type_coulomb_setupBoundaryConditions: Could not setup numerical thresholds
-975- type_latticepoint_update: Could not generate lattice points
-974- xtb_calculator_singlepoint: Electronic structure method terminated
-973- scf: Setup of Coulomb evaluator failed
-972- type_coulomb_setupBoundaryConditions: Could not setup numerical thresholds
-971- type_latticepoint_update: Could not generate lattice points
-970- xtb_calculator_singlepoint: Electronic structure method terminated
-969- scf: Setup of Coulomb evaluator failed
-968- type_coulomb_setupBoundaryConditions: Could not setup numerical thresholds
-967- type_latticepoint_update: Could not generate lattice points
-966- xtb_calculator_singlepoint: Electronic structure method terminated
-965- scf: Setup of Coulomb evaluator failed
-964- type_coulomb_setupBoundaryConditions: Could not setup numerical thresholds
-963- type_latticepoint_update: Could not generate lattice points
-962- xtb_calculator_singlepoint: Electronic structure method terminated
-961- scf: Setup of Coulomb evaluator failed
-960- type_coulomb_setupBoundaryConditions: Could not setup numerical thresholds
-959- type_latticepoint_update: Could not generate lattice points
-958- xtb_calculator_singlepoint: Electronic structure method terminated
-957- scf: Setup of Coulomb evaluator failed
-956- type_coulomb_setupBoundaryConditions: Could not setup numerical thresholds
-955- type_latticepoint_update: Could not generate lattice points
-954- xtb_calculator_singlepoint: Electronic structure method terminated
-953- scf: Setup of Coulomb evaluator failed
-952- type_coulomb_setupBoundaryConditions: Could not setup numerical thresholds
-951- type_latticepoint_update: Could not generate lattice points
-950- xtb_calculator_singlepoint: Electronic structure method terminated
-949- scf: Setup of Coulomb evaluator failed
-948- type_coulomb_setupBoundaryConditions: Could not setup numerical thresholds
-947- type_latticepoint_update: Could not generate lattice points
-946- xtb_calculator_singlepoint: Electronic structure method terminated
-945- scf: Setup of Coulomb evaluator failed
-944- type_coulomb_setupBoundaryConditions: Could not setup numerical thresholds
-943- type_latticepoint_update: Could not generate lattice points
-942- xtb_calculator_singlepoint: Electronic structure method terminated
-941- scf: Setup of Coulomb evaluator failed
-940- type_coulomb_setupBoundaryConditions: Could not setup numerical thresholds
-939- type_latticepoint_update: Could not generate lattice points
-938- xtb_calculator_singlepoint: Electronic structure method terminated
-937- scf: Setup of Coulomb evaluator failed
-936- type_coulomb_setupBoundaryConditions: Could not setup numerical thresholds
-935- type_latticepoint_update: Could not generate lattice points
-934- xtb_calculator_singlepoint: Electronic structure method terminated
-933- scf: Setup of Coulomb evaluator failed
-932- type_coulomb_setupBoundaryConditions: Could not setup numerical thresholds
-931- type_latticepoint_update: Could not generate lattice points
-930- xtb_calculator_singlepoint: Electronic structure method terminated
-929- scf: Setup of Coulomb evaluator failed
-928- type_coulomb_setupBoundaryConditions: Could not setup numerical thresholds
-927- type_latticepoint_update: Could not generate lattice points
-926- xtb_calculator_singlepoint: Electronic structure method terminated
-925- scf: Setup of Coulomb evaluator failed
-924- type_coulomb_setupBoundaryConditions: Could not setup numerical thresholds
-923- type_latticepoint_update: Could not generate lattice points
-922- xtb_calculator_singlepoint: Electronic structure method terminated
-921- scf: Setup of Coulomb evaluator failed
-920- type_coulomb_setupBoundaryConditions: Could not setup numerical thresholds
-919- type_latticepoint_update: Could not generate lattice points
-918- xtb_calculator_singlepoint: Electronic structure method terminated
-917- scf: Setup of Coulomb evaluator failed
-916- type_coulomb_setupBoundaryConditions: Could not setup numerical thresholds
-915- type_latticepoint_update: Could not generate lattice points
-914- xtb_calculator_singlepoint: Electronic structure method terminated
-913- scf: Setup of Coulomb evaluator failed
-912- type_coulomb_setupBoundaryConditions: Could not setup numerical thresholds
-911- type_latticepoint_update: Could not generate lattice points
-910- xtb_calculator_singlepoint: Electronic structure method terminated
-909- scf: Setup of Coulomb evaluator failed
-908- type_coulomb_setupBoundaryConditions: Could not setup numerical thresholds
-907- type_latticepoint_update: Could not generate lattice points
-906- xtb_calculator_singlepoint: Electronic structure method terminated
-905- scf: Setup of Coulomb evaluator failed
-904- type_coulomb_setupBoundaryConditions: Could not setup numerical thresholds
-903- type_latticepoint_update: Could not generate lattice points
-902- xtb_calculator_singlepoint: Electronic structure method terminated
-901- scf: Setup of Coulomb evaluator failed
-900- type_coulomb_setupBoundaryConditions: Could not setup numerical thresholds
-899- type_latticepoint_update: Could not generate lattice points
-898- xtb_calculator_singlepoint: Electronic structure method terminated
-897- scf: Setup of Coulomb evaluator failed
-896- type_coulomb_setupBoundaryConditions: Could not setup numerical thresholds
-895- type_latticepoint_update: Could not generate lattice points
-894- xtb_calculator_singlepoint: Electronic structure method terminated
-893- scf: Setup of Coulomb evaluator failed
-892- type_coulomb_setupBoundaryConditions: Could not setup numerical thresholds
-891- type_latticepoint_update: Could not generate lattice points
-890- xtb_calculator_singlepoint: Electronic structure method terminated
-889- scf: Setup of Coulomb evaluator failed
-888- type_coulomb_setupBoundaryConditions: Could not setup numerical thresholds
-887- type_latticepoint_update: Could not generate lattice points
-886- xtb_calculator_singlepoint: Electronic structure method terminated
-885- scf: Setup of Coulomb evaluator failed
-884- type_coulomb_setupBoundaryConditions: Could not setup numerical thresholds
-883- type_latticepoint_update: Could not generate lattice points
-882- xtb_calculator_singlepoint: Electronic structure method terminated
-881- scf: Setup of Coulomb evaluator failed
-880- type_coulomb_setupBoundaryConditions: Could not setup numerical thresholds
-879- type_latticepoint_update: Could not generate lattice points
-878- xtb_calculator_singlepoint: Electronic structure method terminated
-877- scf: Setup of Coulomb evaluator failed
-876- type_coulomb_setupBoundaryConditions: Could not setup numerical thresholds
-875- type_latticepoint_update: Could not generate lattice points
-874- xtb_calculator_singlepoint: Electronic structure method terminated
-873- scf: Setup of Coulomb evaluator failed
-872- type_coulomb_setupBoundaryConditions: Could not setup numerical thresholds
-871- type_latticepoint_update: Could not generate lattice points
-870- xtb_calculator_singlepoint: Electronic structure method terminated
-869- scf: Setup of Coulomb evaluator failed
-868- type_coulomb_setupBoundaryConditions: Could not setup numerical thresholds
-867- type_latticepoint_update: Could not generate lattice points
-866- xtb_calculator_singlepoint: Electronic structure method terminated
-865- scf: Setup of Coulomb evaluator failed
-864- type_coulomb_setupBoundaryConditions: Could not setup numerical thresholds
-863- type_latticepoint_update: Could not generate lattice points
-862- xtb_calculator_singlepoint: Electronic structure method terminated
-861- scf: Setup of Coulomb evaluator failed
-860- type_coulomb_setupBoundaryConditions: Could not setup numerical thresholds
-859- type_latticepoint_update: Could not generate lattice points
-858- xtb_calculator_singlepoint: Electronic structure method terminated
-857- scf: Setup of Coulomb evaluator failed
-856- type_coulomb_setupBoundaryConditions: Could not setup numerical thresholds
-855- type_latticepoint_update: Could not generate lattice points
-854- xtb_calculator_singlepoint: Electronic structure method terminated
-853- scf: Setup of Coulomb evaluator failed
-852- type_coulomb_setupBoundaryConditions: Could not setup numerical thresholds
-851- type_latticepoint_update: Could not generate lattice points
-850- xtb_calculator_singlepoint: Electronic structure method terminated
-849- scf: Setup of Coulomb evaluator failed
-848- type_coulomb_setupBoundaryConditions: Could not setup numerical thresholds
-847- type_latticepoint_update: Could not generate lattice points
-846- xtb_calculator_singlepoint: Electronic structure method terminated
-845- scf: Setup of Coulomb evaluator failed
-844- type_coulomb_setupBoundaryConditions: Could not setup numerical thresholds
-843- type_latticepoint_update: Could not generate lattice points
-842- xtb_calculator_singlepoint: Electronic structure method terminated
-841- scf: Setup of Coulomb evaluator failed
-840- type_coulomb_setupBoundaryConditions: Could not setup numerical thresholds
-839- type_latticepoint_update: Could not generate lattice points
-838- xtb_calculator_singlepoint: Electronic structure method terminated
-837- scf: Setup of Coulomb evaluator failed
-836- type_coulomb_setupBoundaryConditions: Could not setup numerical thresholds
-835- type_latticepoint_update: Could not generate lattice points
-834- xtb_calculator_singlepoint: Electronic structure method terminated
-833- scf: Setup of Coulomb evaluator failed
-832- type_coulomb_setupBoundaryConditions: Could not setup numerical thresholds
-831- type_latticepoint_update: Could not generate lattice points
-830- xtb_calculator_singlepoint: Electronic structure method terminated
-829- scf: Setup of Coulomb evaluator failed
-828- type_coulomb_setupBoundaryConditions: Could not setup numerical thresholds
-827- type_latticepoint_update: Could not generate lattice points
-826- xtb_calculator_singlepoint: Electronic structure method terminated
-825- scf: Setup of Coulomb evaluator failed
-824- type_coulomb_setupBoundaryConditions: Could not setup numerical thresholds
-823- type_latticepoint_update: Could not generate lattice points
-822- xtb_calculator_singlepoint: Electronic structure method terminated
-821- scf: Setup of Coulomb evaluator failed
-820- type_coulomb_setupBoundaryConditions: Could not setup numerical thresholds
-819- type_latticepoint_update: Could not generate lattice points
-818- xtb_calculator_singlepoint: Electronic structure method terminated
-817- scf: Setup of Coulomb evaluator failed
-816- type_coulomb_setupBoundaryConditions: Could not setup numerical thresholds
-815- type_latticepoint_update: Could not generate lattice points
-814- xtb_calculator_singlepoint: Electronic structure method terminated
-813- scf: Setup of Coulomb evaluator failed
-812- type_coulomb_setupBoundaryConditions: Could not setup numerical thresholds
-811- type_latticepoint_update: Could not generate lattice points
-810- xtb_calculator_singlepoint: Electronic structure method terminated
-809- scf: Setup of Coulomb evaluator failed
-808- type_coulomb_setupBoundaryConditions: Could not setup numerical thresholds
-807- type_latticepoint_update: Could not generate lattice points
-806- xtb_calculator_singlepoint: Electronic structure method terminated
-805- scf: Setup of Coulomb evaluator failed
-804- type_coulomb_setupBoundaryConditions: Could not setup numerical thresholds
-803- type_latticepoint_update: Could not generate lattice points
-802- xtb_calculator_singlepoint: Electronic structure method terminated
-801- scf: Setup of Coulomb evaluator failed
-800- type_coulomb_setupBoundaryConditions: Could not setup numerical thresholds
-799- type_latticepoint_update: Could not generate lattice points
-798- xtb_calculator_singlepoint: Electronic structure method terminated
-797- scf: Setup of Coulomb evaluator failed
-796- type_coulomb_setupBoundaryConditions: Could not setup numerical thresholds
-795- type_latticepoint_update: Could not generate lattice points
-794- xtb_calculator_singlepoint: Electronic structure method terminated
-793- scf: Setup of Coulomb evaluator failed
-792- type_coulomb_setupBoundaryConditions: Could not setup numerical thresholds
-791- type_latticepoint_update: Could not generate lattice points
-790- xtb_calculator_singlepoint: Electronic structure method terminated
-789- scf: Setup of Coulomb evaluator failed
-788- type_coulomb_setupBoundaryConditions: Could not setup numerical thresholds
-787- type_latticepoint_update: Could not generate lattice points
-786- xtb_calculator_singlepoint: Electronic structure method terminated
-785- scf: Setup of Coulomb evaluator failed
-784- type_coulomb_setupBoundaryConditions: Could not setup numerical thresholds
-783- type_latticepoint_update: Could not generate lattice points
-782- xtb_calculator_singlepoint: Electronic structure method terminated
-781- scf: Setup of Coulomb evaluator failed
-780- type_coulomb_setupBoundaryConditions: Could not setup numerical thresholds
-779- type_latticepoint_update: Could not generate lattice points
-778- xtb_calculator_singlepoint: Electronic structure method terminated
-777- scf: Setup of Coulomb evaluator failed
-776- type_coulomb_setupBoundaryConditions: Could not setup numerical thresholds
-775- type_latticepoint_update: Could not generate lattice points
-774- xtb_calculator_singlepoint: Electronic structure method terminated
-773- scf: Setup of Coulomb evaluator failed
-772- type_coulomb_setupBoundaryConditions: Could not setup numerical thresholds
-771- type_latticepoint_update: Could not generate lattice points
-770- xtb_calculator_singlepoint: Electronic structure method terminated
-769- scf: Setup of Coulomb evaluator failed
-768- type_coulomb_setupBoundaryConditions: Could not setup numerical thresholds
-767- type_latticepoint_update: Could not generate lattice points
-766- xtb_calculator_singlepoint: Electronic structure method terminated
-765- scf: Setup of Coulomb evaluator failed
-764- type_coulomb_setupBoundaryConditions: Could not setup numerical thresholds
-763- type_latticepoint_update: Could not generate lattice points
-762- xtb_calculator_singlepoint: Electronic structure method terminated
-761- scf: Setup of Coulomb evaluator failed
-760- type_coulomb_setupBoundaryConditions: Could not setup numerical thresholds
-759- type_latticepoint_update: Could not generate lattice points
-758- xtb_calculator_singlepoint: Electronic structure method terminated
-757- scf: Setup of Coulomb evaluator failed
-756- type_coulomb_setupBoundaryConditions: Could not setup numerical thresholds
-755- type_latticepoint_update: Could not generate lattice points
-754- xtb_calculator_singlepoint: Electronic structure method terminated
-753- scf: Setup of Coulomb evaluator failed
-752- type_coulomb_setupBoundaryConditions: Could not setup numerical thresholds
-751- type_latticepoint_update: Could not generate lattice points
-750- xtb_calculator_singlepoint: Electronic structure method terminated
-749- scf: Setup of Coulomb evaluator failed
-748- type_coulomb_setupBoundaryConditions: Could not setup numerical thresholds
-747- type_latticepoint_update: Could not generate lattice points
-746- xtb_calculator_singlepoint: Electronic structure method terminated
-745- scf: Setup of Coulomb evaluator failed
-744- type_coulomb_setupBoundaryConditions: Could not setup numerical thresholds
-743- type_latticepoint_update: Could not generate lattice points
-742- xtb_calculator_singlepoint: Electronic structure method terminated
-741- scf: Setup of Coulomb evaluator failed
-740- type_coulomb_setupBoundaryConditions: Could not setup numerical thresholds
-739- type_latticepoint_update: Could not generate lattice points
-738- xtb_calculator_singlepoint: Electronic structure method terminated
-737- scf: Setup of Coulomb evaluator failed
-736- type_coulomb_setupBoundaryConditions: Could not setup numerical thresholds
-735- type_latticepoint_update: Could not generate lattice points
-734- xtb_calculator_singlepoint: Electronic structure method terminated
-733- scf: Setup of Coulomb evaluator failed
-732- type_coulomb_setupBoundaryConditions: Could not setup numerical thresholds
-731- type_latticepoint_update: Could not generate lattice points
-730- xtb_calculator_singlepoint: Electronic structure method terminated
-729- scf: Setup of Coulomb evaluator failed
-728- type_coulomb_setupBoundaryConditions: Could not setup numerical thresholds
-727- type_latticepoint_update: Could not generate lattice points
-726- xtb_calculator_singlepoint: Electronic structure method terminated
-725- scf: Setup of Coulomb evaluator failed
-724- type_coulomb_setupBoundaryConditions: Could not setup numerical thresholds
-723- type_latticepoint_update: Could not generate lattice points
-722- xtb_calculator_singlepoint: Electronic structure method terminated
-721- scf: Setup of Coulomb evaluator failed
-720- type_coulomb_setupBoundaryConditions: Could not setup numerical thresholds
-719- type_latticepoint_update: Could not generate lattice points
-718- xtb_calculator_singlepoint: Electronic structure method terminated
-717- scf: Setup of Coulomb evaluator failed
-716- type_coulomb_setupBoundaryConditions: Could not setup numerical thresholds
-715- type_latticepoint_update: Could not generate lattice points
-714- xtb_calculator_singlepoint: Electronic structure method terminated
-713- scf: Setup of Coulomb evaluator failed
-712- type_coulomb_setupBoundaryConditions: Could not setup numerical thresholds
-711- type_latticepoint_update: Could not generate lattice points
-710- xtb_calculator_singlepoint: Electronic structure method terminated
-709- scf: Setup of Coulomb evaluator failed
-708- type_coulomb_setupBoundaryConditions: Could not setup numerical thresholds
-707- type_latticepoint_update: Could not generate lattice points
-706- xtb_calculator_singlepoint: Electronic structure method terminated
-705- scf: Setup of Coulomb evaluator failed
-704- type_coulomb_setupBoundaryConditions: Could not setup numerical thresholds
-703- type_latticepoint_update: Could not generate lattice points
-702- xtb_calculator_singlepoint: Electronic structure method terminated
-701- scf: Setup of Coulomb evaluator failed
-700- type_coulomb_setupBoundaryConditions: Could not setup numerical thresholds
-699- type_latticepoint_update: Could not generate lattice points
-698- xtb_calculator_singlepoint: Electronic structure method terminated
-697- scf: Setup of Coulomb evaluator failed
-696- type_coulomb_setupBoundaryConditions: Could not setup numerical thresholds
-695- type_latticepoint_update: Could not generate lattice points
-694- xtb_calculator_singlepoint: Electronic structure method terminated
-693- scf: Setup of Coulomb evaluator failed
-692- type_coulomb_setupBoundaryConditions: Could not setup numerical thresholds
-691- type_latticepoint_update: Could not generate lattice points
-690- xtb_calculator_singlepoint: Electronic structure method terminated
-689- scf: Setup of Coulomb evaluator failed
-688- type_coulomb_setupBoundaryConditions: Could not setup numerical thresholds
-687- type_latticepoint_update: Could not generate lattice points
-686- xtb_calculator_singlepoint: Electronic structure method terminated
-685- scf: Setup of Coulomb evaluator failed
-684- type_coulomb_setupBoundaryConditions: Could not setup numerical thresholds
-683- type_latticepoint_update: Could not generate lattice points
-682- xtb_calculator_singlepoint: Electronic structure method terminated
-681- scf: Setup of Coulomb evaluator failed
-680- type_coulomb_setupBoundaryConditions: Could not setup numerical thresholds
-679- type_latticepoint_update: Could not generate lattice points
-678- xtb_calculator_singlepoint: Electronic structure method terminated
-677- scf: Setup of Coulomb evaluator failed
-676- type_coulomb_setupBoundaryConditions: Could not setup numerical thresholds
-675- type_latticepoint_update: Could not generate lattice points
-674- xtb_calculator_singlepoint: Electronic structure method terminated
-673- scf: Setup of Coulomb evaluator failed
-672- type_coulomb_setupBoundaryConditions: Could not setup numerical thresholds
-671- type_latticepoint_update: Could not generate lattice points
-670- xtb_calculator_singlepoint: Electronic structure method terminated
-669- scf: Setup of Coulomb evaluator failed
-668- type_coulomb_setupBoundaryConditions: Could not setup numerical thresholds
-667- type_latticepoint_update: Could not generate lattice points
-666- xtb_calculator_singlepoint: Electronic structure method terminated
-665- scf: Setup of Coulomb evaluator failed
-664- type_coulomb_setupBoundaryConditions: Could not setup numerical thresholds
-663- type_latticepoint_update: Could not generate lattice points
-662- xtb_calculator_singlepoint: Electronic structure method terminated
-661- scf: Setup of Coulomb evaluator failed
-660- type_coulomb_setupBoundaryConditions: Could not setup numerical thresholds
-659- type_latticepoint_update: Could not generate lattice points
-658- xtb_calculator_singlepoint: Electronic structure method terminated
-657- scf: Setup of Coulomb evaluator failed
-656- type_coulomb_setupBoundaryConditions: Could not setup numerical thresholds
-655- type_latticepoint_update: Could not generate lattice points
-654- xtb_calculator_singlepoint: Electronic structure method terminated
-653- scf: Setup of Coulomb evaluator failed
-652- type_coulomb_setupBoundaryConditions: Could not setup numerical thresholds
-651- type_latticepoint_update: Could not generate lattice points
-650- xtb_calculator_singlepoint: Electronic structure method terminated
-649- scf: Setup of Coulomb evaluator failed
-648- type_coulomb_setupBoundaryConditions: Could not setup numerical thresholds
-647- type_latticepoint_update: Could not generate lattice points
-646- xtb_calculator_singlepoint: Electronic structure method terminated
-645- scf: Setup of Coulomb evaluator failed
-644- type_coulomb_setupBoundaryConditions: Could not setup numerical thresholds
-643- type_latticepoint_update: Could not generate lattice points
-642- xtb_calculator_singlepoint: Electronic structure method terminated
-641- scf: Setup of Coulomb evaluator failed
-640- type_coulomb_setupBoundaryConditions: Could not setup numerical thresholds
-639- type_latticepoint_update: Could not generate lattice points
-638- xtb_calculator_singlepoint: Electronic structure method terminated
-637- scf: Setup of Coulomb evaluator failed
-636- type_coulomb_setupBoundaryConditions: Could not setup numerical thresholds
-635- type_latticepoint_update: Could not generate lattice points
-634- xtb_calculator_singlepoint: Electronic structure method terminated
-633- scf: Setup of Coulomb evaluator failed
-632- type_coulomb_setupBoundaryConditions: Could not setup numerical thresholds
-631- type_latticepoint_update: Could not generate lattice points
-630- xtb_calculator_singlepoint: Electronic structure method terminated
-629- scf: Setup of Coulomb evaluator failed
-628- type_coulomb_setupBoundaryConditions: Could not setup numerical thresholds
-627- type_latticepoint_update: Could not generate lattice points
-626- xtb_calculator_singlepoint: Electronic structure method terminated
-625- scf: Setup of Coulomb evaluator failed
-624- type_coulomb_setupBoundaryConditions: Could not setup numerical thresholds
-623- type_latticepoint_update: Could not generate lattice points
-622- xtb_calculator_singlepoint: Electronic structure method terminated
-621- scf: Setup of Coulomb evaluator failed
-620- type_coulomb_setupBoundaryConditions: Could not setup numerical thresholds
-619- type_latticepoint_update: Could not generate lattice points
-618- xtb_calculator_singlepoint: Electronic structure method terminated
-617- scf: Setup of Coulomb evaluator failed
-616- type_coulomb_setupBoundaryConditions: Could not setup numerical thresholds
-615- type_latticepoint_update: Could not generate lattice points
-614- xtb_calculator_singlepoint: Electronic structure method terminated
-613- scf: Setup of Coulomb evaluator failed
-612- type_coulomb_setupBoundaryConditions: Could not setup numerical thresholds
-611- type_latticepoint_update: Could not generate lattice points
-610- xtb_calculator_singlepoint: Electronic structure method terminated
-609- scf: Setup of Coulomb evaluator failed
-608- type_coulomb_setupBoundaryConditions: Could not setup numerical thresholds
-607- type_latticepoint_update: Could not generate lattice points
-606- xtb_calculator_singlepoint: Electronic structure method terminated
-605- scf: Setup of Coulomb evaluator failed
-604- type_coulomb_setupBoundaryConditions: Could not setup numerical thresholds
-603- type_latticepoint_update: Could not generate lattice points
-602- xtb_calculator_singlepoint: Electronic structure method terminated
-601- scf: Setup of Coulomb evaluator failed
-600- type_coulomb_setupBoundaryConditions: Could not setup numerical thresholds
-599- type_latticepoint_update: Could not generate lattice points
-598- xtb_calculator_singlepoint: Electronic structure method terminated
-597- scf: Setup of Coulomb evaluator failed
-596- type_coulomb_setupBoundaryConditions: Could not setup numerical thresholds
-595- type_latticepoint_update: Could not generate lattice points
-594- xtb_calculator_singlepoint: Electronic structure method terminated
-593- scf: Setup of Coulomb evaluator failed
-592- type_coulomb_setupBoundaryConditions: Could not setup numerical thresholds
-591- type_latticepoint_update: Could not generate lattice points
-590- xtb_calculator_singlepoint: Electronic structure method terminated
-589- scf: Setup of Coulomb evaluator failed
-588- type_coulomb_setupBoundaryConditions: Could not setup numerical thresholds
-587- type_latticepoint_update: Could not generate lattice points
-586- xtb_calculator_singlepoint: Electronic structure method terminated
-585- scf: Setup of Coulomb evaluator failed
-584- type_coulomb_setupBoundaryConditions: Could not setup numerical thresholds
-583- type_latticepoint_update: Could not generate lattice points
-582- xtb_calculator_singlepoint: Electronic structure method terminated
-581- scf: Setup of Coulomb evaluator failed
-580- type_coulomb_setupBoundaryConditions: Could not setup numerical thresholds
-579- type_latticepoint_update: Could not generate lattice points
-578- xtb_calculator_singlepoint: Electronic structure method terminated
-577- scf: Setup of Coulomb evaluator failed
-576- type_coulomb_setupBoundaryConditions: Could not setup numerical thresholds
-575- type_latticepoint_update: Could not generate lattice points
-574- xtb_calculator_singlepoint: Electronic structure method terminated
-573- scf: Setup of Coulomb evaluator failed
-572- type_coulomb_setupBoundaryConditions: Could not setup numerical thresholds
-571- type_latticepoint_update: Could not generate lattice points
-570- xtb_calculator_singlepoint: Electronic structure method terminated
-569- scf: Setup of Coulomb evaluator failed
-568- type_coulomb_setupBoundaryConditions: Could not setup numerical thresholds
-567- type_latticepoint_update: Could not generate lattice points
-566- xtb_calculator_singlepoint: Electronic structure method terminated
-565- scf: Setup of Coulomb evaluator failed
-564- type_coulomb_setupBoundaryConditions: Could not setup numerical thresholds
-563- type_latticepoint_update: Could not generate lattice points
-562- xtb_calculator_singlepoint: Electronic structure method terminated
-561- scf: Setup of Coulomb evaluator failed
-560- type_coulomb_setupBoundaryConditions: Could not setup numerical thresholds
-559- type_latticepoint_update: Could not generate lattice points
-558- xtb_calculator_singlepoint: Electronic structure method terminated
-557- scf: Setup of Coulomb evaluator failed
-556- type_coulomb_setupBoundaryConditions: Could not setup numerical thresholds
-555- type_latticepoint_update: Could not generate lattice points
-554- xtb_calculator_singlepoint: Electronic structure method terminated
-553- scf: Setup of Coulomb evaluator failed
-552- type_coulomb_setupBoundaryConditions: Could not setup numerical thresholds
-551- type_latticepoint_update: Could not generate lattice points
-550- xtb_calculator_singlepoint: Electronic structure method terminated
-549- scf: Setup of Coulomb evaluator failed
-548- type_coulomb_setupBoundaryConditions: Could not setup numerical thresholds
-547- type_latticepoint_update: Could not generate lattice points
-546- xtb_calculator_singlepoint: Electronic structure method terminated
-545- scf: Setup of Coulomb evaluator failed
-544- type_coulomb_setupBoundaryConditions: Could not setup numerical thresholds
-543- type_latticepoint_update: Could not generate lattice points
-542- xtb_calculator_singlepoint: Electronic structure method terminated
-541- scf: Setup of Coulomb evaluator failed
-540- type_coulomb_setupBoundaryConditions: Could not setup numerical thresholds
-539- type_latticepoint_update: Could not generate lattice points
-538- xtb_calculator_singlepoint: Electronic structure method terminated
-537- scf: Setup of Coulomb evaluator failed
-536- type_coulomb_setupBoundaryConditions: Could not setup numerical thresholds
-535- type_latticepoint_update: Could not generate lattice points
-534- xtb_calculator_singlepoint: Electronic structure method terminated
-533- scf: Setup of Coulomb evaluator failed
-532- type_coulomb_setupBoundaryConditions: Could not setup numerical thresholds
-531- type_latticepoint_update: Could not generate lattice points
-530- xtb_calculator_singlepoint: Electronic structure method terminated
-529- scf: Setup of Coulomb evaluator failed
-528- type_coulomb_setupBoundaryConditions: Could not setup numerical thresholds
-527- type_latticepoint_update: Could not generate lattice points
-526- xtb_calculator_singlepoint: Electronic structure method terminated
-525- scf: Setup of Coulomb evaluator failed
-524- type_coulomb_setupBoundaryConditions: Could not setup numerical thresholds
-523- type_latticepoint_update: Could not generate lattice points
-522- xtb_calculator_singlepoint: Electronic structure method terminated
-521- scf: Setup of Coulomb evaluator failed
-520- type_coulomb_setupBoundaryConditions: Could not setup numerical thresholds
-519- type_latticepoint_update: Could not generate lattice points
-518- xtb_calculator_singlepoint: Electronic structure method terminated
-517- scf: Setup of Coulomb evaluator failed
-516- type_coulomb_setupBoundaryConditions: Could not setup numerical thresholds
-515- type_latticepoint_update: Could not generate lattice points
-514- xtb_calculator_singlepoint: Electronic structure method terminated
-513- scf: Setup of Coulomb evaluator failed
-512- type_coulomb_setupBoundaryConditions: Could not setup numerical thresholds
-511- type_latticepoint_update: Could not generate lattice points
-510- xtb_calculator_singlepoint: Electronic structure method terminated
-509- scf: Setup of Coulomb evaluator failed
-508- type_coulomb_setupBoundaryConditions: Could not setup numerical thresholds
-507- type_latticepoint_update: Could not generate lattice points
-506- xtb_calculator_singlepoint: Electronic structure method terminated
-505- scf: Setup of Coulomb evaluator failed
-504- type_coulomb_setupBoundaryConditions: Could not setup numerical thresholds
-503- type_latticepoint_update: Could not generate lattice points
-502- xtb_calculator_singlepoint: Electronic structure method terminated
-501- scf: Setup of Coulomb evaluator failed
-500- type_coulomb_setupBoundaryConditions: Could not setup numerical thresholds
-499- type_latticepoint_update: Could not generate lattice points
-498- xtb_calculator_singlepoint: Electronic structure method terminated
-497- scf: Setup of Coulomb evaluator failed
-496- type_coulomb_setupBoundaryConditions: Could not setup numerical thresholds
-495- type_latticepoint_update: Could not generate lattice points
-494- xtb_calculator_singlepoint: Electronic structure method terminated
-493- scf: Setup of Coulomb evaluator failed
-492- type_coulomb_setupBoundaryConditions: Could not setup numerical thresholds
-491- type_latticepoint_update: Could not generate lattice points
-490- xtb_calculator_singlepoint: Electronic structure method terminated
-489- scf: Setup of Coulomb evaluator failed
-488- type_coulomb_setupBoundaryConditions: Could not setup numerical thresholds
-487- type_latticepoint_update: Could not generate lattice points
-486- xtb_calculator_singlepoint: Electronic structure method terminated
-485- scf: Setup of Coulomb evaluator failed
-484- type_coulomb_setupBoundaryConditions: Could not setup numerical thresholds
-483- type_latticepoint_update: Could not generate lattice points
-482- xtb_calculator_singlepoint: Electronic structure method terminated
-481- scf: Setup of Coulomb evaluator failed
-480- type_coulomb_setupBoundaryConditions: Could not setup numerical thresholds
-479- type_latticepoint_update: Could not generate lattice points
-478- xtb_calculator_singlepoint: Electronic structure method terminated
-477- scf: Setup of Coulomb evaluator failed
-476- type_coulomb_setupBoundaryConditions: Could not setup numerical thresholds
-475- type_latticepoint_update: Could not generate lattice points
-474- xtb_calculator_singlepoint: Electronic structure method terminated
-473- scf: Setup of Coulomb evaluator failed
-472- type_coulomb_setupBoundaryConditions: Could not setup numerical thresholds
-471- type_latticepoint_update: Could not generate lattice points
-470- xtb_calculator_singlepoint: Electronic structure method terminated
-469- scf: Setup of Coulomb evaluator failed
-468- type_coulomb_setupBoundaryConditions: Could not setup numerical thresholds
-467- type_latticepoint_update: Could not generate lattice points
-466- xtb_calculator_singlepoint: Electronic structure method terminated
-465- scf: Setup of Coulomb evaluator failed
-464- type_coulomb_setupBoundaryConditions: Could not setup numerical thresholds
-463- type_latticepoint_update: Could not generate lattice points
-462- xtb_calculator_singlepoint: Electronic structure method terminated
-461- scf: Setup of Coulomb evaluator failed
-460- type_coulomb_setupBoundaryConditions: Could not setup numerical thresholds
-459- type_latticepoint_update: Could not generate lattice points
-458- xtb_calculator_singlepoint: Electronic structure method terminated
-457- scf: Setup of Coulomb evaluator failed
-456- type_coulomb_setupBoundaryConditions: Could not setup numerical thresholds
-455- type_latticepoint_update: Could not generate lattice points
-454- xtb_calculator_singlepoint: Electronic structure method terminated
-453- scf: Setup of Coulomb evaluator failed
-452- type_coulomb_setupBoundaryConditions: Could not setup numerical thresholds
-451- type_latticepoint_update: Could not generate lattice points
-450- xtb_calculator_singlepoint: Electronic structure method terminated
-449- scf: Setup of Coulomb evaluator failed
-448- type_coulomb_setupBoundaryConditions: Could not setup numerical thresholds
-447- type_latticepoint_update: Could not generate lattice points
-446- xtb_calculator_singlepoint: Electronic structure method terminated
-445- scf: Setup of Coulomb evaluator failed
-444- type_coulomb_setupBoundaryConditions: Could not setup numerical thresholds
-443- type_latticepoint_update: Could not generate lattice points
-442- xtb_calculator_singlepoint: Electronic structure method terminated
-441- scf: Setup of Coulomb evaluator failed
-440- type_coulomb_setupBoundaryConditions: Could not setup numerical thresholds
-439- type_latticepoint_update: Could not generate lattice points
-438- xtb_calculator_singlepoint: Electronic structure method terminated
-437- scf: Setup of Coulomb evaluator failed
-436- type_coulomb_setupBoundaryConditions: Could not setup numerical thresholds
-435- type_latticepoint_update: Could not generate lattice points
-434- xtb_calculator_singlepoint: Electronic structure method terminated
-433- scf: Setup of Coulomb evaluator failed
-432- type_coulomb_setupBoundaryConditions: Could not setup numerical thresholds
-431- type_latticepoint_update: Could not generate lattice points
-430- xtb_calculator_singlepoint: Electronic structure method terminated
-429- scf: Setup of Coulomb evaluator failed
-428- type_coulomb_setupBoundaryConditions: Could not setup numerical thresholds
-427- type_latticepoint_update: Could not generate lattice points
-426- xtb_calculator_singlepoint: Electronic structure method terminated
-425- scf: Setup of Coulomb evaluator failed
-424- type_coulomb_setupBoundaryConditions: Could not setup numerical thresholds
-423- type_latticepoint_update: Could not generate lattice points
-422- xtb_calculator_singlepoint: Electronic structure method terminated
-421- scf: Setup of Coulomb evaluator failed
-420- type_coulomb_setupBoundaryConditions: Could not setup numerical thresholds
-419- type_latticepoint_update: Could not generate lattice points
-418- xtb_calculator_singlepoint: Electronic structure method terminated
-417- scf: Setup of Coulomb evaluator failed
-416- type_coulomb_setupBoundaryConditions: Could not setup numerical thresholds
-415- type_latticepoint_update: Could not generate lattice points
-414- xtb_calculator_singlepoint: Electronic structure method terminated
-413- scf: Setup of Coulomb evaluator failed
-412- type_coulomb_setupBoundaryConditions: Could not setup numerical thresholds
-411- type_latticepoint_update: Could not generate lattice points
-410- xtb_calculator_singlepoint: Electronic structure method terminated
-409- scf: Setup of Coulomb evaluator failed
-408- type_coulomb_setupBoundaryConditions: Could not setup numerical thresholds
-407- type_latticepoint_update: Could not generate lattice points
-406- xtb_calculator_singlepoint: Electronic structure method terminated
-405- scf: Setup of Coulomb evaluator failed
-404- type_coulomb_setupBoundaryConditions: Could not setup numerical thresholds
-403- type_latticepoint_update: Could not generate lattice points
-402- xtb_calculator_singlepoint: Electronic structure method terminated
-401- scf: Setup of Coulomb evaluator failed
-400- type_coulomb_setupBoundaryConditions: Could not setup numerical thresholds
-399- type_latticepoint_update: Could not generate lattice points
-398- xtb_calculator_singlepoint: Electronic structure method terminated
-397- scf: Setup of Coulomb evaluator failed
-396- type_coulomb_setupBoundaryConditions: Could not setup numerical thresholds
-395- type_latticepoint_update: Could not generate lattice points
-394- xtb_calculator_singlepoint: Electronic structure method terminated
-393- scf: Setup of Coulomb evaluator failed
-392- type_coulomb_setupBoundaryConditions: Could not setup numerical thresholds
-391- type_latticepoint_update: Could not generate lattice points
-390- xtb_calculator_singlepoint: Electronic structure method terminated
-389- scf: Setup of Coulomb evaluator failed
-388- type_coulomb_setupBoundaryConditions: Could not setup numerical thresholds
-387- type_latticepoint_update: Could not generate lattice points
-386- xtb_calculator_singlepoint: Electronic structure method terminated
-385- scf: Setup of Coulomb evaluator failed
-384- type_coulomb_setupBoundaryConditions: Could not setup numerical thresholds
-383- type_latticepoint_update: Could not generate lattice points
-382- xtb_calculator_singlepoint: Electronic structure method terminated
-381- scf: Setup of Coulomb evaluator failed
-380- type_coulomb_setupBoundaryConditions: Could not setup numerical thresholds
-379- type_latticepoint_update: Could not generate lattice points
-378- xtb_calculator_singlepoint: Electronic structure method terminated
-377- scf: Setup of Coulomb evaluator failed
-376- type_coulomb_setupBoundaryConditions: Could not setup numerical thresholds
-375- type_latticepoint_update: Could not generate lattice points
-374- xtb_calculator_singlepoint: Electronic structure method terminated
-373- scf: Setup of Coulomb evaluator failed
-372- type_coulomb_setupBoundaryConditions: Could not setup numerical thresholds
-371- type_latticepoint_update: Could not generate lattice points
-370- xtb_calculator_singlepoint: Electronic structure method terminated
-369- scf: Setup of Coulomb evaluator failed
-368- type_coulomb_setupBoundaryConditions: Could not setup numerical thresholds
-367- type_latticepoint_update: Could not generate lattice points
-366- xtb_calculator_singlepoint: Electronic structure method terminated
-365- scf: Setup of Coulomb evaluator failed
-364- type_coulomb_setupBoundaryConditions: Could not setup numerical thresholds
-363- type_latticepoint_update: Could not generate lattice points
-362- xtb_calculator_singlepoint: Electronic structure method terminated
-361- scf: Setup of Coulomb evaluator failed
-360- type_coulomb_setupBoundaryConditions: Could not setup numerical thresholds
-359- type_latticepoint_update: Could not generate lattice points
-358- xtb_calculator_singlepoint: Electronic structure method terminated
-357- scf: Setup of Coulomb evaluator failed
-356- type_coulomb_setupBoundaryConditions: Could not setup numerical thresholds
-355- type_latticepoint_update: Could not generate lattice points
-354- xtb_calculator_singlepoint: Electronic structure method terminated
-353- scf: Setup of Coulomb evaluator failed
-352- type_coulomb_setupBoundaryConditions: Could not setup numerical thresholds
-351- type_latticepoint_update: Could not generate lattice points
-350- xtb_calculator_singlepoint: Electronic structure method terminated
-349- scf: Setup of Coulomb evaluator failed
-348- type_coulomb_setupBoundaryConditions: Could not setup numerical thresholds
-347- type_latticepoint_update: Could not generate lattice points
-346- xtb_calculator_singlepoint: Electronic structure method terminated
-345- scf: Setup of Coulomb evaluator failed
-344- type_coulomb_setupBoundaryConditions: Could not setup numerical thresholds
-343- type_latticepoint_update: Could not generate lattice points
-342- xtb_calculator_singlepoint: Electronic structure method terminated
-341- scf: Setup of Coulomb evaluator failed
-340- type_coulomb_setupBoundaryConditions: Could not setup numerical thresholds
-339- type_latticepoint_update: Could not generate lattice points
-338- xtb_calculator_singlepoint: Electronic structure method terminated
-337- scf: Setup of Coulomb evaluator failed
-336- type_coulomb_setupBoundaryConditions: Could not setup numerical thresholds
-335- type_latticepoint_update: Could not generate lattice points
-334- xtb_calculator_singlepoint: Electronic structure method terminated
-333- scf: Setup of Coulomb evaluator failed
-332- type_coulomb_setupBoundaryConditions: Could not setup numerical thresholds
-331- type_latticepoint_update: Could not generate lattice points
-330- xtb_calculator_singlepoint: Electronic structure method terminated
-329- scf: Setup of Coulomb evaluator failed
-328- type_coulomb_setupBoundaryConditions: Could not setup numerical thresholds
-327- type_latticepoint_update: Could not generate lattice points
-326- xtb_calculator_singlepoint: Electronic structure method terminated
-325- scf: Setup of Coulomb evaluator failed
-324- type_coulomb_setupBoundaryConditions: Could not setup numerical thresholds
-323- type_latticepoint_update: Could not generate lattice points
-322- xtb_calculator_singlepoint: Electronic structure method terminated
-321- scf: Setup of Coulomb evaluator failed
-320- type_coulomb_setupBoundaryConditions: Could not setup numerical thresholds
-319- type_latticepoint_update: Could not generate lattice points
-318- xtb_calculator_singlepoint: Electronic structure method terminated
-317- scf: Setup of Coulomb evaluator failed
-316- type_coulomb_setupBoundaryConditions: Could not setup numerical thresholds
-315- type_latticepoint_update: Could not generate lattice points
-314- xtb_calculator_singlepoint: Electronic structure method terminated
-313- scf: Setup of Coulomb evaluator failed
-312- type_coulomb_setupBoundaryConditions: Could not setup numerical thresholds
-311- type_latticepoint_update: Could not generate lattice points
-310- xtb_calculator_singlepoint: Electronic structure method terminated
-309- scf: Setup of Coulomb evaluator failed
-308- type_coulomb_setupBoundaryConditions: Could not setup numerical thresholds
-307- type_latticepoint_update: Could not generate lattice points
-306- xtb_calculator_singlepoint: Electronic structure method terminated
-305- scf: Setup of Coulomb evaluator failed
-304- type_coulomb_setupBoundaryConditions: Could not setup numerical thresholds
-303- type_latticepoint_update: Could not generate lattice points
-302- xtb_calculator_singlepoint: Electronic structure method terminated
-301- scf: Setup of Coulomb evaluator failed
-300- type_coulomb_setupBoundaryConditions: Could not setup numerical thresholds
-299- type_latticepoint_update: Could not generate lattice points
-298- xtb_calculator_singlepoint: Electronic structure method terminated
-297- scf: Setup of Coulomb evaluator failed
-296- type_coulomb_setupBoundaryConditions: Could not setup numerical thresholds
-295- type_latticepoint_update: Could not generate lattice points
-294- xtb_calculator_singlepoint: Electronic structure method terminated
-293- scf: Setup of Coulomb evaluator failed
-292- type_coulomb_setupBoundaryConditions: Could not setup numerical thresholds
-291- type_latticepoint_update: Could not generate lattice points
-290- xtb_calculator_singlepoint: Electronic structure method terminated
-289- scf: Setup of Coulomb evaluator failed
-288- type_coulomb_setupBoundaryConditions: Could not setup numerical thresholds
-287- type_latticepoint_update: Could not generate lattice points
-286- xtb_calculator_singlepoint: Electronic structure method terminated
-285- scf: Setup of Coulomb evaluator failed
-284- type_coulomb_setupBoundaryConditions: Could not setup numerical thresholds
-283- type_latticepoint_update: Could not generate lattice points
-282- xtb_calculator_singlepoint: Electronic structure method terminated
-281- scf: Setup of Coulomb evaluator failed
-280- type_coulomb_setupBoundaryConditions: Could not setup numerical thresholds
-279- type_latticepoint_update: Could not generate lattice points
-278- xtb_calculator_singlepoint: Electronic structure method terminated
-277- scf: Setup of Coulomb evaluator failed
-276- type_coulomb_setupBoundaryConditions: Could not setup numerical thresholds
-275- type_latticepoint_update: Could not generate lattice points
-274- xtb_calculator_singlepoint: Electronic structure method terminated
-273- scf: Setup of Coulomb evaluator failed
-272- type_coulomb_setupBoundaryConditions: Could not setup numerical thresholds
-271- type_latticepoint_update: Could not generate lattice points
-270- xtb_calculator_singlepoint: Electronic structure method terminated
-269- scf: Setup of Coulomb evaluator failed
-268- type_coulomb_setupBoundaryConditions: Could not setup numerical thresholds
-267- type_latticepoint_update: Could not generate lattice points
-266- xtb_calculator_singlepoint: Electronic structure method terminated
-265- scf: Setup of Coulomb evaluator failed
-264- type_coulomb_setupBoundaryConditions: Could not setup numerical thresholds
-263- type_latticepoint_update: Could not generate lattice points
-262- xtb_calculator_singlepoint: Electronic structure method terminated
-261- scf: Setup of Coulomb evaluator failed
-260- type_coulomb_setupBoundaryConditions: Could not setup numerical thresholds
-259- type_latticepoint_update: Could not generate lattice points
-258- xtb_calculator_singlepoint: Electronic structure method terminated
-257- scf: Setup of Coulomb evaluator failed
-256- type_coulomb_setupBoundaryConditions: Could not setup numerical thresholds
-255- type_latticepoint_update: Could not generate lattice points
-254- xtb_calculator_singlepoint: Electronic structure method terminated
-253- scf: Setup of Coulomb evaluator failed
-252- type_coulomb_setupBoundaryConditions: Could not setup numerical thresholds
-251- type_latticepoint_update: Could not generate lattice points
-250- xtb_calculator_singlepoint: Electronic structure method terminated
-249- scf: Setup of Coulomb evaluator failed
-248- type_coulomb_setupBoundaryConditions: Could not setup numerical thresholds
-247- type_latticepoint_update: Could not generate lattice points
-246- xtb_calculator_singlepoint: Electronic structure method terminated
-245- scf: Setup of Coulomb evaluator failed
-244- type_coulomb_setupBoundaryConditions: Could not setup numerical thresholds
-243- type_latticepoint_update: Could not generate lattice points
-242- xtb_calculator_singlepoint: Electronic structure method terminated
-241- scf: Setup of Coulomb evaluator failed
-240- type_coulomb_setupBoundaryConditions: Could not setup numerical thresholds
-239- type_latticepoint_update: Could not generate lattice points
-238- xtb_calculator_singlepoint: Electronic structure method terminated
-237- scf: Setup of Coulomb evaluator failed
-236- type_coulomb_setupBoundaryConditions: Could not setup numerical thresholds
-235- type_latticepoint_update: Could not generate lattice points
-234- xtb_calculator_singlepoint: Electronic structure method terminated
-233- scf: Setup of Coulomb evaluator failed
-232- type_coulomb_setupBoundaryConditions: Could not setup numerical thresholds
-231- type_latticepoint_update: Could not generate lattice points
-230- xtb_calculator_singlepoint: Electronic structure method terminated
-229- scf: Setup of Coulomb evaluator failed
-228- type_coulomb_setupBoundaryConditions: Could not setup numerical thresholds
-227- type_latticepoint_update: Could not generate lattice points
-226- xtb_calculator_singlepoint: Electronic structure method terminated
-225- scf: Setup of Coulomb evaluator failed
-224- type_coulomb_setupBoundaryConditions: Could not setup numerical thresholds
-223- type_latticepoint_update: Could not generate lattice points
-222- xtb_calculator_singlepoint: Electronic structure method terminated
-221- scf: Setup of Coulomb evaluator failed
-220- type_coulomb_setupBoundaryConditions: Could not setup numerical thresholds
-219- type_latticepoint_update: Could not generate lattice points
-218- xtb_calculator_singlepoint: Electronic structure method terminated
-217- scf: Setup of Coulomb evaluator failed
-216- type_coulomb_setupBoundaryConditions: Could not setup numerical thresholds
-215- type_latticepoint_update: Could not generate lattice points
-214- xtb_calculator_singlepoint: Electronic structure method terminated
-213- scf: Setup of Coulomb evaluator failed
-212- type_coulomb_setupBoundaryConditions: Could not setup numerical thresholds
-211- type_latticepoint_update: Could not generate lattice points
-210- xtb_calculator_singlepoint: Electronic structure method terminated
-209- scf: Setup of Coulomb evaluator failed
-208- type_coulomb_setupBoundaryConditions: Could not setup numerical thresholds
-207- type_latticepoint_update: Could not generate lattice points
-206- xtb_calculator_singlepoint: Electronic structure method terminated
-205- scf: Setup of Coulomb evaluator failed
-204- type_coulomb_setupBoundaryConditions: Could not setup numerical thresholds
-203- type_latticepoint_update: Could not generate lattice points
-202- xtb_calculator_singlepoint: Electronic structure method terminated
-201- scf: Setup of Coulomb evaluator failed
-200- type_coulomb_setupBoundaryConditions: Could not setup numerical thresholds
-199- type_latticepoint_update: Could not generate lattice points
-198- xtb_calculator_singlepoint: Electronic structure method terminated
-197- scf: Setup of Coulomb evaluator failed
-196- type_coulomb_setupBoundaryConditions: Could not setup numerical thresholds
-195- type_latticepoint_update: Could not generate lattice points
-194- xtb_calculator_singlepoint: Electronic structure method terminated
-193- scf: Setup of Coulomb evaluator failed
-192- type_coulomb_setupBoundaryConditions: Could not setup numerical thresholds
-191- type_latticepoint_update: Could not generate lattice points
-190- xtb_calculator_singlepoint: Electronic structure method terminated
-189- scf: Setup of Coulomb evaluator failed
-188- type_coulomb_setupBoundaryConditions: Could not setup numerical thresholds
-187- type_latticepoint_update: Could not generate lattice points
-186- xtb_calculator_singlepoint: Electronic structure method terminated
-185- scf: Setup of Coulomb evaluator failed
-184- type_coulomb_setupBoundaryConditions: Could not setup numerical thresholds
-183- type_latticepoint_update: Could not generate lattice points
-182- xtb_calculator_singlepoint: Electronic structure method terminated
-181- scf: Setup of Coulomb evaluator failed
-180- type_coulomb_setupBoundaryConditions: Could not setup numerical thresholds
-179- type_latticepoint_update: Could not generate lattice points
-178- xtb_calculator_singlepoint: Electronic structure method terminated
-177- scf: Setup of Coulomb evaluator failed
-176- type_coulomb_setupBoundaryConditions: Could not setup numerical thresholds
-175- type_latticepoint_update: Could not generate lattice points
-174- xtb_calculator_singlepoint: Electronic structure method terminated
-173- scf: Setup of Coulomb evaluator failed
-172- type_coulomb_setupBoundaryConditions: Could not setup numerical thresholds
-171- type_latticepoint_update: Could not generate lattice points
-170- xtb_calculator_singlepoint: Electronic structure method terminated
-169- scf: Setup of Coulomb evaluator failed
-168- type_coulomb_setupBoundaryConditions: Could not setup numerical thresholds
-167- type_latticepoint_update: Could not generate lattice points
-166- xtb_calculator_singlepoint: Electronic structure method terminated
-165- scf: Setup of Coulomb evaluator failed
-164- type_coulomb_setupBoundaryConditions: Could not setup numerical thresholds
-163- type_latticepoint_update: Could not generate lattice points
-162- xtb_calculator_singlepoint: Electronic structure method terminated
-161- scf: Setup of Coulomb evaluator failed
-160- type_coulomb_setupBoundaryConditions: Could not setup numerical thresholds
-159- type_latticepoint_update: Could not generate lattice points
-158- xtb_calculator_singlepoint: Electronic structure method terminated
-157- scf: Setup of Coulomb evaluator failed
-156- type_coulomb_setupBoundaryConditions: Could not setup numerical thresholds
-155- type_latticepoint_update: Could not generate lattice points
-154- xtb_calculator_singlepoint: Electronic structure method terminated
-153- scf: Setup of Coulomb evaluator failed
-152- type_coulomb_setupBoundaryConditions: Could not setup numerical thresholds
-151- type_latticepoint_update: Could not generate lattice points
-150- xtb_calculator_singlepoint: Electronic structure method terminated
-149- scf: Setup of Coulomb evaluator failed
-148- type_coulomb_setupBoundaryConditions: Could not setup numerical thresholds
-147- type_latticepoint_update: Could not generate lattice points
-146- xtb_calculator_singlepoint: Electronic structure method terminated
-145- scf: Setup of Coulomb evaluator failed
-144- type_coulomb_setupBoundaryConditions: Could not setup numerical thresholds
-143- type_latticepoint_update: Could not generate lattice points
-142- xtb_calculator_singlepoint: Electronic structure method terminated
-141- scf: Setup of Coulomb evaluator failed
-140- type_coulomb_setupBoundaryConditions: Could not setup numerical thresholds
-139- type_latticepoint_update: Could not generate lattice points
-138- xtb_calculator_singlepoint: Electronic structure method terminated
-137- scf: Setup of Coulomb evaluator failed
-136- type_coulomb_setupBoundaryConditions: Could not setup numerical thresholds
-135- type_latticepoint_update: Could not generate lattice points
-134- xtb_calculator_singlepoint: Electronic structure method terminated
-133- scf: Setup of Coulomb evaluator failed
-132- type_coulomb_setupBoundaryConditions: Could not setup numerical thresholds
-131- type_latticepoint_update: Could not generate lattice points
-130- xtb_calculator_singlepoint: Electronic structure method terminated
-129- scf: Setup of Coulomb evaluator failed
-128- type_coulomb_setupBoundaryConditions: Could not setup numerical thresholds
-127- type_latticepoint_update: Could not generate lattice points
-126- xtb_calculator_singlepoint: Electronic structure method terminated
-125- scf: Setup of Coulomb evaluator failed
-124- type_coulomb_setupBoundaryConditions: Could not setup numerical thresholds
-123- type_latticepoint_update: Could not generate lattice points
-122- xtb_calculator_singlepoint: Electronic structure method terminated
-121- scf: Setup of Coulomb evaluator failed
-120- type_coulomb_setupBoundaryConditions: Could not setup numerical thresholds
-119- type_latticepoint_update: Could not generate lattice points
-118- xtb_calculator_singlepoint: Electronic structure method terminated
-117- scf: Setup of Coulomb evaluator failed
-116- type_coulomb_setupBoundaryConditions: Could not setup numerical thresholds
-115- type_latticepoint_update: Could not generate lattice points
-114- xtb_calculator_singlepoint: Electronic structure method terminated
-113- scf: Setup of Coulomb evaluator failed
-112- type_coulomb_setupBoundaryConditions: Could not setup numerical thresholds
-111- type_latticepoint_update: Could not generate lattice points
-110- xtb_calculator_singlepoint: Electronic structure method terminated
-109- scf: Setup of Coulomb evaluator failed
-108- type_coulomb_setupBoundaryConditions: Could not setup numerical thresholds
-107- type_latticepoint_update: Could not generate lattice points
-106- xtb_calculator_singlepoint: Electronic structure method terminated
-105- scf: Setup of Coulomb evaluator failed
-104- type_coulomb_setupBoundaryConditions: Could not setup numerical thresholds
-103- type_latticepoint_update: Could not generate lattice points
-102- xtb_calculator_singlepoint: Electronic structure method terminated
-101- scf: Setup of Coulomb evaluator failed
-100- type_coulomb_setupBoundaryConditions: Could not setup numerical thresholds
-99- type_latticepoint_update: Could not generate lattice points
-98- xtb_calculator_singlepoint: Electronic structure method terminated
-97- scf: Setup of Coulomb evaluator failed
-96- type_coulomb_setupBoundaryConditions: Could not setup numerical thresholds
-95- type_latticepoint_update: Could not generate lattice points
-94- xtb_calculator_singlepoint: Electronic structure method terminated
-93- scf: Setup of Coulomb evaluator failed
-92- type_coulomb_setupBoundaryConditions: Could not setup numerical thresholds
-91- type_latticepoint_update: Could not generate lattice points
-90- xtb_calculator_singlepoint: Electronic structure method terminated
-89- scf: Setup of Coulomb evaluator failed
-88- type_coulomb_setupBoundaryConditions: Could not setup numerical thresholds
-87- type_latticepoint_update: Could not generate lattice points
-86- xtb_calculator_singlepoint: Electronic structure method terminated
-85- scf: Setup of Coulomb evaluator failed
-84- type_coulomb_setupBoundaryConditions: Could not setup numerical thresholds
-83- type_latticepoint_update: Could not generate lattice points
-82- xtb_calculator_singlepoint: Electronic structure method terminated
-81- scf: Setup of Coulomb evaluator failed
-80- type_coulomb_setupBoundaryConditions: Could not setup numerical thresholds
-79- type_latticepoint_update: Could not generate lattice points
-78- xtb_calculator_singlepoint: Electronic structure method terminated
-77- scf: Setup of Coulomb evaluator failed
-76- type_coulomb_setupBoundaryConditions: Could not setup numerical thresholds
-75- type_latticepoint_update: Could not generate lattice points
-74- xtb_calculator_singlepoint: Electronic structure method terminated
-73- scf: Setup of Coulomb evaluator failed
-72- type_coulomb_setupBoundaryConditions: Could not setup numerical thresholds
-71- type_latticepoint_update: Could not generate lattice points
-70- xtb_calculator_singlepoint: Electronic structure method terminated
-69- scf: Setup of Coulomb evaluator failed
-68- type_coulomb_setupBoundaryConditions: Could not setup numerical thresholds
-67- type_latticepoint_update: Could not generate lattice points
-66- xtb_calculator_singlepoint: Electronic structure method terminated
-65- scf: Setup of Coulomb evaluator failed
-64- type_coulomb_setupBoundaryConditions: Could not setup numerical thresholds
-63- type_latticepoint_update: Could not generate lattice points
-62- xtb_calculator_singlepoint: Electronic structure method terminated
-61- scf: Setup of Coulomb evaluator failed
-60- type_coulomb_setupBoundaryConditions: Could not setup numerical thresholds
-59- type_latticepoint_update: Could not generate lattice points
-58- xtb_calculator_singlepoint: Electronic structure method terminated
-57- scf: Setup of Coulomb evaluator failed
-56- type_coulomb_setupBoundaryConditions: Could not setup numerical thresholds
-55- type_latticepoint_update: Could not generate lattice points
-54- xtb_calculator_singlepoint: Electronic structure method terminated
-53- scf: Setup of Coulomb evaluator failed
-52- type_coulomb_setupBoundaryConditions: Could not setup numerical thresholds
-51- type_latticepoint_update: Could not generate lattice points
-50- xtb_calculator_singlepoint: Electronic structure method terminated
-49- scf: Setup of Coulomb evaluator failed
-48- type_coulomb_setupBoundaryConditions: Could not setup numerical thresholds
-47- type_latticepoint_update: Could not generate lattice points
-46- xtb_calculator_singlepoint: Electronic structure method terminated
-45- scf: Setup of Coulomb evaluator failed
-44- type_coulomb_setupBoundaryConditions: Could not setup numerical thresholds
-43- type_latticepoint_update: Could not generate lattice points
-42- xtb_calculator_singlepoint: Electronic structure method terminated
-41- scf: Setup of Coulomb evaluator failed
-40- type_coulomb_setupBoundaryConditions: Could not setup numerical thresholds
-39- type_latticepoint_update: Could not generate lattice points
-38- xtb_calculator_singlepoint: Electronic structure method terminated
-37- scf: Setup of Coulomb evaluator failed
-36- type_coulomb_setupBoundaryConditions: Could not setup numerical thresholds
-35- type_latticepoint_update: Could not generate lattice points
-34- xtb_calculator_singlepoint: Electronic structure method terminated
-33- scf: Setup of Coulomb evaluator failed
-32- type_coulomb_setupBoundaryConditions: Could not setup numerical thresholds
-31- type_latticepoint_update: Could not generate lattice points
-30- xtb_calculator_singlepoint: Electronic structure method terminated
-29- scf: Setup of Coulomb evaluator failed
-28- type_coulomb_setupBoundaryConditions: Could not setup numerical thresholds
-27- type_latticepoint_update: Could not generate lattice points
-26- xtb_calculator_singlepoint: Electronic structure method terminated
-25- scf: Setup of Coulomb evaluator failed
-24- type_coulomb_setupBoundaryConditions: Could not setup numerical thresholds
-23- type_latticepoint_update: Could not generate lattice points
-22- xtb_calculator_singlepoint: Electronic structure method terminated
-21- scf: Setup of Coulomb evaluator failed
-20- type_coulomb_setupBoundaryConditions: Could not setup numerical thresholds
-19- type_latticepoint_update: Could not generate lattice points
-18- xtb_calculator_singlepoint: Electronic structure method terminated
-17- scf: Setup of Coulomb evaluator failed
-16- type_coulomb_setupBoundaryConditions: Could not setup numerical thresholds
-15- type_latticepoint_update: Could not generate lattice points
-14- xtb_calculator_singlepoint: Electronic structure method terminated
-13- scf: Setup of Coulomb evaluator failed
-12- type_coulomb_setupBoundaryConditions: Could not setup numerical thresholds
-11- type_latticepoint_update: Could not generate lattice points
-10- xtb_calculator_singlepoint: Electronic structure method terminated
-9- scf: Setup of Coulomb evaluator failed
-8- type_coulomb_setupBoundaryConditions: Could not setup numerical thresholds
-7- type_latticepoint_update: Could not generate lattice points
-6- xtb_calculator_singlepoint: Electronic structure method terminated
-5- scf: Setup of Coulomb evaluator failed
-4- type_coulomb_setupBoundaryConditions: Could not setup numerical thresholds
-3- type_latticepoint_update: Could not generate lattice points
-2- xtb_calculator_singlepoint: Electronic structure method terminated
-1- scf: Self consistent charge iterator did not converge
########################################################################

------------------------------------------------------------------------
 * finished run on 2026/07/10 at 14:11:02.314     
------------------------------------------------------------------------
 total:
 * wall-time:     0 d,  0 h,  0 min, 34.901 sec
 *  cpu-time:     0 d,  0 h,  2 min, 26.984 sec
 * ratio c/w:     4.211 speedup
 SCF:
 * wall-time:     0 d,  0 h,  0 min,  0.062 sec
 *  cpu-time:     0 d,  0 h,  0 min,  0.266 sec
 * ratio c/w:     4.284 speedup
 MD:
 * wall-time:     0 d,  0 h,  0 min, 34.710 sec
 *  cpu-time:     0 d,  0 h,  2 min, 26.516 sec
 * ratio c/w:     4.221 speedup

normal termination of xtb
