24
Properties=species:S:1:pos:R:3 energy:=T 0.000000000000=T gnorm:=T xtb:=T 6.7.1pre=T (5071a88)=T pbc="F F F"
O        5.88240290       2.88017477       6.55999576
H        2.55429956       8.94929150      10.41054012
H        7.64057586       2.94284795       3.20539793
O        3.08218881       9.04943874       3.16779774
H       11.13631018       7.98926218       4.77809241
H        8.46661843       4.98913009       0.00542643
O        1.63365811       3.61564536       2.38327282
H       10.38213294       9.07789461       9.58049016
H        2.02424047       2.00378990       4.11530341
O        4.57350562       0.29633107       0.88511583
H        5.72850059       5.06063728       4.37956238
H        3.47333113       3.34128587      10.47129205
O        5.60960587       1.48848952       7.58834029
H       10.29498795       2.75668054       4.58621320
H        4.40165306       6.81867375       1.70262835
O        2.77595582       3.64618737       9.16425317
H        8.51358373       5.03460057       4.91315750
H       11.45560381       2.42876199       6.58003696
O        3.24892193       4.56723987       3.36054838
H        0.83829006       6.00138591      11.12374044
H        6.10875668       5.80351478      10.00026128
O        9.82972524       8.41108614       3.68402022
H        1.65958903       2.51626074      10.56158564
H        4.27383489       9.23971580       8.70072863
