24
Lattice="11.592952198283966 0.0 0.0 0.0 11.592952198283966 0.0 0.0 0.0 11.592952198283966" Properties=species:S:1:pos:R:3 pbc="T T T"
O        2.89823805       2.89823805       2.89823805
H        2.42384527       2.87663839       2.06576252
H        3.71713667       3.35285579       2.69511662
O        2.89823805       2.89823805       8.69471415
H        2.21193120       3.43662172       9.09177396
H        3.30722936       3.47260322       8.04559065
O        2.89823805       8.69471415       2.89823805
H        3.60046678       8.72488739       2.24670528
H        2.56083426       7.79925624       2.84490544
O        2.89823805       8.69471415       8.69471415
H        3.71214701       9.15432297       8.48295366
H        3.03615333       8.36078324       9.58240784
O        8.69471415       2.89823805       2.89823805
H        7.90700455       2.44125707       3.19692271
H        8.69548024       3.72039899       3.39076354
O        8.69471415       2.89823805       8.69471415
H        9.37337803       2.28025518       8.41895508
H        8.55844042       3.46044618       7.93059240
O        8.69471415       8.69471415       2.89823805
H        8.09862432       8.39721743       3.58722511
H        8.49127434       9.62514900       2.79130912
O        8.69471415       8.69471415       8.69471415
H        8.60285521       8.82684015       7.74992041
H        9.52616546       9.11714875       8.91554956
