16
Properties=species:S:1:pos:R:3:forces:R:3 energy:=T -17.812259918842=T gnorm:=T 0.000930443810=T xtb:=T 6.7.1=T (edcfbbe)=T energy=-6381.184382701475 free_energy=-6381.184382701475 pbc="F F F"
C       -0.65906016       1.29490723      -0.39177838       0.00000096      -0.00001227      -0.00000589
C       -0.05427777       0.12260685      -0.25652697       0.00000441      -0.00000297      -0.00001216
C        1.37789301      -0.05335939      -0.11868826       0.00000310      -0.00000657      -0.00002675
C        2.27205361       0.88780669      -0.39045105      -0.00000158       0.00000570       0.00002160
C        1.30912248       1.39466119       2.63763806      -0.00000086       0.00000055      -0.00001669
C        0.12919627       0.80536326       2.78746988       0.00000004       0.00001750      -0.00001039
H       -0.11878173       2.22460881      -0.42551556      -0.00000562      -0.00000903      -0.00005065
H       -1.73217387       1.35136327      -0.46831854      -0.00000712      -0.00000092       0.00005375
H       -0.66558813      -0.76681229      -0.23304155       0.00003093      -0.00001969       0.00002055
H        1.73247285      -1.02679112       0.18658658      -0.00001043      -0.00001865      -0.00005203
H        3.32560958       0.70185952      -0.26461702      -0.00000436       0.00000027       0.00002702
H        1.98650654       1.86208924      -0.74488033      -0.00002290       0.00002700       0.00009275
H        2.20677802       0.82468665       2.49184843      -0.00000154      -0.00000762      -0.00002272
H        1.38394846       2.46892560       2.63789263       0.00004982      -0.00000083      -0.00000548
H       -0.76263950       1.38824117       2.95008013      -0.00001224       0.00000884      -0.00002628
H        0.02894034      -0.26567815       2.80230197      -0.00002261       0.00001870       0.00001337
