16
Properties=species:S:1:pos:R:3:forces:R:3:charge:R:1 energy:=T -17.822955842371=T gnorm:=T 0.000913890081=T xtb:=T 6.7.1=T (edcfbbe)=T energy=-484.6962658608862 free_energy=-484.6962658608862 dipole="-0.003803954255583774 -0.05227898484871338 -0.01946750408370685" pbc="F F F"
C        1.61957607       0.38955742      -0.55191894      -0.00001842       0.00004679       0.00001295      -0.07398716
C        0.97349686       1.48619546      -0.08987047      -0.00000243      -0.00002005      -0.00001109      -0.03303882
C       -0.43723448       1.55042935       0.01283904      -0.00000715      -0.00001773       0.00001473      -0.03303781
C       -1.23978479       0.51976287      -0.34375270      -0.00000884       0.00000358       0.00002074      -0.07398696
C       -0.44019204      -1.05607545       1.15225054      -0.00002996      -0.00000550      -0.00005779      -0.07704026
C        0.90552214      -1.11735702       1.05427518      -0.00001593      -0.00002217       0.00001763      -0.07703847
H        2.69444341       0.32653936      -0.49940760      -0.00003062      -0.00000639       0.00002860       0.03455594
H        1.14955553      -0.29368899      -1.23470450       0.00001382       0.00001685      -0.00004236       0.04777439
H        1.53983079       2.26219021       0.40813990       0.00004031       0.00000902      -0.00002200       0.02781704
H       -0.85315249       2.37113818       0.58237158       0.00003427       0.00001731       0.00000106       0.02781711
H       -2.29701458       0.55382494      -0.13597140       0.00000015      -0.00001263      -0.00003589       0.03455565
H       -0.93713448      -0.19865378      -1.08282187       0.00003033      -0.00000174       0.00003636       0.04777257
H       -0.90954624      -0.48701340       1.93539135      -0.00000316      -0.00000315       0.00003552       0.03482650
H       -1.06679185      -1.76409471       0.63798513      -0.00001986      -0.00003836       0.00003458       0.03909204
H        1.53264893      -0.59824592       1.75760646      -0.00001075       0.00000293      -0.00004768       0.03482651
H        1.38459629      -1.87574639       0.45952807       0.00002825       0.00003124       0.00001464       0.03909171
