90
 energy: -152.629056923308 gnorm: 0.003348220797 xtb: 6.7.1 (edcfbbe)
O           -1.17493517580026       -3.43330830271121       -3.70679170992419
H           -1.41918671771906       -3.67794675773437       -2.80049424649832
H           -0.22758789252316       -3.64168661295999       -3.78257320687300
O           -1.32758760423435       -3.60209519691350       -0.96098634583123
H           -1.66891416705760       -3.86817885033507       -0.09816537328218
H           -1.06942123864690       -2.66224563525037       -0.86364124938603
O           -1.47982883519191       -3.67464237440851        1.82586630098986
H           -0.52203018013864       -3.55133254288987        1.65917842569406
H           -1.53498979210309       -3.82021106247501        2.79093909172393
O           -1.03566541025955       -3.55891551808636        4.49168535839311
H           -0.08615514552548       -3.75639166819236        4.46619842385714
H           -1.09381269962323       -2.59169239805082        4.49929547331639
O           -1.05719934460903       -0.82298623822715       -3.48871269001659
H           -1.21589261894264       -1.79125702032826       -3.65068270582223
H           -1.49275353461432       -0.32982103966255       -4.18901020965561
O           -0.53578079001052       -0.98100885579327       -0.81809803402165
H            0.42695187905729       -0.82347556794083       -0.87394400008289
H           -0.88490249633415       -0.74286659376299       -1.69252268490361
O           -1.92897064749160       -1.06820932627129        1.56085833878790
H           -1.97257493691157       -2.04571729217919        1.66750712551426
H           -1.39728767776278       -0.94810808790731        0.75473725582260
O           -0.82949763398457       -0.81543568067827        3.96831482394621
H           -1.21379860314955       -0.82804879016825        3.06032486751428
H           -1.04623426122172        0.04193071126651        4.36264466048511
O           -1.14977690294853        1.87916615647481       -4.69041896641063
H           -1.18379278722214        1.70503747122515       -3.73539115440523
H           -0.24356599252521        1.62006996735425       -4.98964290412904
O           -1.23712190279183        1.96521900816904       -1.92952403082418
H           -1.70853109146253        1.53922801268261       -1.19560161882193
H           -1.54543420055004        2.90088476101516       -1.93085300633908
O           -2.24948484412711        1.40986772780341        0.51525980024390
H           -2.70377817491428        0.74748408596529        1.04781129807002
H           -2.43179630626168        2.30817662821766        0.85391686133484
O           -0.89527695875034        1.65587653609373        5.23349289774699
H           -1.30468390461254        1.79535527929300        6.08752851793212
H            0.07421484901779        1.52218180808436        5.40610698201786
O           -0.54903185853765        4.40831943794422       -4.32448770708444
H           -0.84815810015431        3.47604645903045       -4.53667960135863
H           -0.53099570416499        4.87699884144338       -5.15851145243170
O           -1.75293154469314        4.60281909141172       -1.89267119673186
H           -1.45740742050446        4.71626954214765       -2.81444672004376
H           -1.01555838708403        4.91320582731158       -1.34969745576684
O           -2.18037586472379        4.04756323154453        1.08061779308463
H           -2.79140063304116        4.46971225661799        0.47159208791122
H           -1.29098449677684        4.25745487776872        0.72253733716732
O           -0.32900935419361        3.34167048958721        3.15390893792196
H           -0.62659625032795        2.84061668889270        3.93405506546551
H           -1.11833061028745        3.71417377088308        2.74336607691810
O            1.60980618268030       -3.58224489293065       -3.71084209639226
H            1.69663912330485       -2.59759559823871       -3.75150780659667
H            2.14808363871688       -3.93456301174546       -4.41896287247893
O            1.30887414414963       -4.31675979538142       -1.01179787923205
H            1.61165687867939       -4.08477146243558       -1.90029802083440
H            0.33546137406938       -4.25656349663636       -1.05465375838789
O            1.16429059554627       -3.18669783892624        1.40318497151770
H            1.37977020471973       -3.61573715811790        0.54955290768803
H            1.46275303932841       -2.25613001665227        1.33998115472638
O            1.71342875224166       -3.83676486579034        3.93090154873446
H            2.15780198328145       -4.68268354060101        3.97971544065972
H            1.54355376291075       -3.66563515524656        2.97444654894817
O            1.61401038230488       -0.93099970470054       -3.69991470949302
H            1.95357155053991       -0.71404318735402       -2.81698840089232
H            0.63505013875433       -0.84094124793521       -3.63421488538767
O            2.08862112604581       -0.25385324676388       -1.10588277111453
H            2.42313285087074       -0.49192854454209       -0.22940059411398
H            1.96235955244316        0.71245815100294       -1.09779952720472
O            2.06408957115380       -0.64723824124239        1.58745961761377
H            2.20980436999376       -0.79109089045244        2.54326134991837
H            1.36978111826808        0.03780376169158        1.55593080586837
O            1.79712110131307       -1.08530297512171        4.22134645469481
H            0.81618115702564       -1.02392028230531        4.11010097962230
H            1.96638868310092       -2.02564249962606        4.37487950068221
O            1.39821513356103        1.36520594648169       -5.24174158283262
H            1.65773644427461        0.52513587000289       -4.83103533957030
H            1.77501428229453        2.07179244857798       -4.68416513361249
O            1.12531554649366        2.30635956452151       -0.84650617538556
H            0.28687219658622        2.11521501912063       -1.34624382792510
H            0.93519069014542        1.95830764774138        0.06002313983600
O            0.27512424594951        1.37858893850388        1.46148022878176
H            0.17034568972085        2.09858991373350        2.12306252737358
H           -0.62696975649508        1.20122058457990        1.12033235049880
O            1.71388076648642        1.29480760738899        5.48432626706168
H            1.86704806398238        0.39312371977475        5.13595345681776
H            2.14064141683201        1.89637774145932        4.87104862058702
O            1.90552689043908        3.36942393416051       -3.43978971622843
H            1.09960490072189        3.86315506148924       -3.66929657938696
H            1.79241137518086        3.05150461943399       -2.53789372230329
O            0.27460340833442        4.67508130188601        0.04289418627486
H            0.88206657025796        5.04300055518387        0.68651965573486
H            0.70373558029952        3.86470793059079       -0.32401383549337
