16
Properties=species:S:1:pos:R:3 energy:=T -17.817532948576=T gnorm:=T 0.000396279826=T xtb:=T 6.7.1=T (edcfbbe)=T pbc="F F F"
C       -0.68097355       0.92305583       0.13572223
C        0.05332703      -0.11091996      -0.28624902
C        1.48425741      -0.05141996      -0.33468092
C        2.17587145       1.05645163      -0.07233860
C        1.35655328       1.17854883       2.38268229
C        0.04410318       1.35601724       2.23673596
H       -0.28930658       1.91838827       0.20008955
H       -1.74333631       0.81630553       0.29003547
H       -0.42580568      -1.06692744      -0.41783950
H        2.03081663      -0.97431049      -0.45237243
H        3.24960208       1.01842854       0.00392731
H        1.72249776       2.02707367      -0.00415427
H        1.78167214       0.20643666       2.56786963
H        2.02584664       2.02288193       2.40758490
H       -0.37338107       2.34618231       2.18801488
H       -0.65174441       0.54828594       2.35497249
