16
Properties=species:S:1:pos:R:3 energy:=T -17.817532948576=T gnorm:=T 0.000396279826=T xtb:=T 6.7.1=T (edcfbbe)=T pbc="F F F"
C       -0.67778536       0.92357721       0.13686014
C        0.05468627      -0.11170769      -0.28315667
C        1.48680474      -0.05273893      -0.33446221
C        2.18672593       1.05813642      -0.11127715
C        1.34461864       1.17573674       2.41614411
C        0.03799799       1.35895081       2.24116000
H       -0.28138465       1.91673460       0.20674190
H       -1.74085725       0.82027397       0.28964789
H       -0.42478485      -1.06731844      -0.41534452
H        2.03100968      -0.97790298      -0.44717750
H        3.26217029       1.01899324      -0.05727527
H        1.73302113       2.02791311      -0.03126584
H        1.76644145       0.19960671       2.58629419
H        2.01888208       2.01617991       2.43876290
H       -0.37268974       2.35162322       2.18511680
H       -0.66386703       0.55400882       2.34215918
