16
Properties=species:S:1:pos:R:3 energy:=T -17.817532948576=T gnorm:=T 0.000396279826=T xtb:=T 6.7.1=T (edcfbbe)=T pbc="F F F"
C       -0.67937945       0.92331652       0.13629119
C        0.05400665      -0.11131382      -0.28470284
C        1.48553108      -0.05207945      -0.33457157
C        2.18129869       1.05729402      -0.09180787
C        1.35058596       1.17714279       2.39941320
C        0.04105059       1.35748403       2.23894798
H       -0.28534561       1.91756144       0.20341572
H       -1.74209678       0.81828975       0.28984168
H       -0.42529526      -1.06712294      -0.41659201
H        2.03091315      -0.97610674      -0.44977496
H        3.25588619       1.01871089      -0.02667398
H        1.72775944       2.02749339      -0.01771005
H        1.77405679       0.20302168       2.57708191
H        2.02236436       2.01953092       2.42317390
H       -0.37303541       2.34890276       2.18656584
H       -0.65780572       0.55114738       2.34856584
