16
Properties=species:S:1:pos:R:3 energy:=T -17.817532948576=T gnorm:=T 0.000396279826=T xtb:=T 6.7.1=T (edcfbbe)=T pbc="F F F"
C       -0.68256765       0.92279514       0.13515328
C        0.05264741      -0.11052610      -0.28779519
C        1.48298374      -0.05076048      -0.33479027
C        2.17044421       1.05560924      -0.05286933
C        1.36252060       1.17995488       2.36595138
C        0.04715578       1.35455046       2.23452394
H       -0.29326754       1.91921510       0.19676337
H       -1.74457583       0.81432130       0.29022926
H       -0.42631609      -1.06673193      -0.41908699
H        2.03072010      -0.97251425      -0.45496989
H        3.24331798       1.01814619       0.03452860
H        1.71723608       2.02665396       0.00940152
H        1.78928748       0.20985163       2.55865735
H        2.02932892       2.02623294       2.39199590
H       -0.37372673       2.34346186       2.18946392
H       -0.64568310       0.54542450       2.36137915
