16
Properties=species:S:1:pos:R:3 energy:=T -17.817532948576=T gnorm:=T 0.000396279826=T xtb:=T 6.7.1=T (edcfbbe)=T pbc="F F F"
C       -0.68416174       0.92253445       0.13458432
C        0.05196779      -0.11013224      -0.28934137
C        1.48171008      -0.05010099      -0.33489963
C        2.16501697       1.05476685      -0.03340005
C        1.36848792       1.18136093       2.34922048
C        0.05020838       1.35308368       2.23231192
H       -0.29722851       1.92004194       0.19343720
H       -1.74581536       0.81233708       0.29042305
H       -0.42682650      -1.06653643      -0.42033447
H        2.03062357      -0.97071800      -0.45756735
H        3.23703388       1.01786384       0.06512989
H        1.71197440       2.02623424       0.02295731
H        1.79690282       0.21326661       2.54944508
H        2.03281120       2.02958395       2.37640689
H       -0.37407240       2.34074140       2.19091296
H       -0.63962179       0.54256307       2.36778581
