16
Properties=species:S:1:pos:R:3 energy:=T -17.817532948576=T gnorm:=T 0.000396279826=T xtb:=T 6.7.1=T (edcfbbe)=T pbc="F F F"
C       -0.71160924       0.96194572       0.17897742
C        0.07600894      -0.14085929      -0.28804050
C        1.51163182      -0.05397564      -0.35113775
C        2.19573802       1.06654909      -0.06540283
C        1.39628336       1.15188574       2.43008429
C        0.04129287       1.36181103       2.22007292
H       -0.32280257       1.90347670       0.15611966
H       -1.72261194       0.83017863       0.29082704
H       -0.42644501      -1.04896609      -0.43300468
H        2.03938370      -1.00676238      -0.48146036
H        3.25658087       1.03289526       0.01662998
H        1.71360522       2.00901464      -0.04008378
H        1.76073443       0.21147942       2.54936599
H        1.98489906       2.00351369       2.43292699
H       -0.37872664       2.36574500       2.18512486
H       -0.65898790       0.52778903       2.39806348
