16
Properties=species:S:1:pos:R:3 energy:=T -17.817532948576=T gnorm:=T 0.000396279826=T xtb:=T 6.7.1=T (edcfbbe)=T pbc="F F F"
C       -0.67542605       0.94124945       0.14579500
C        0.05197516      -0.14059841      -0.26360020
C        1.48890885      -0.02507409      -0.27037678
C        2.16660333       1.05297069      -0.11633700
C        1.39374866       1.20145987       2.36907163
C        0.07387983       1.39981489       2.24868541
H       -0.27630501       1.91665320       0.17718955
H       -1.74740751       0.80065101       0.26750635
H       -0.41040912      -1.08677879      -0.38317884
H        2.03664691      -0.96177346      -0.51366271
H        3.28358435       1.02373978       0.01948576
H        1.68698587       2.01530919      -0.06411904
H        1.79826595       0.23612664       2.54455175
H        1.99580866       2.05840372       2.39514497
H       -0.35665239       2.37037508       2.17268562
H       -0.67754184       0.53550205       2.35793457
