16
Properties=species:S:1:pos:R:3:forces:R:3 energy:=T -17.822955842371=T gnorm:=T 0.000913890081=T xtb:=T 6.7.1=T (edcfbbe)=T rel_kcal=0.0 energy=-6387.32854216928 free_energy=-6387.32854216928 pbc="F F F"
C       -0.77958969       1.00073178      -0.37190509      -0.02220694      -0.00237591      -0.03455149
C       -0.00051213      -0.07237956      -0.42047766      -0.00949829       0.00115208      -0.01405742
C        1.47051578      -0.07237752      -0.42047644       0.00949583       0.00114390      -0.01405767
C        2.24959041       1.00073571      -0.37190246       0.02221231      -0.00236845      -0.03455208
C        1.39574903       1.27271074       2.85269103      -0.00056188       0.01074823       0.05352083
C        0.07424779       1.27271889       2.85269950       0.00056157       0.01074758       0.05351602
H       -0.38107549       2.00372079      -0.32111484       0.01498392       0.00474359       0.00967780
H       -1.85455079       0.90699278      -0.36316309      -0.02059463      -0.00975162       0.00091541
H       -0.47434826      -1.04505545      -0.44866168       0.01070119      -0.01713355      -0.01092327
H        1.94435453      -1.04505217      -0.44865998      -0.01070172      -0.01713284      -0.01092324
H        3.32455182       0.90699966      -0.36315898       0.02059249      -0.00975197       0.00091530
H        1.85107362       2.00372375      -0.32111237      -0.01498366       0.00474236       0.00967708
H        1.96150400       0.35353027       2.92559020      -0.00582171       0.02130447      -0.01257547
H        1.96412861       2.18695925       2.74701542      -0.00619677      -0.00868564       0.00799596
H       -0.49412188       2.18697435       2.74703031       0.00619704      -0.00868680       0.00799687
H       -0.49151735       0.35354528       2.92560612       0.00582125       0.02130458      -0.01257461
16
Properties=species:S:1:pos:R:3:forces:R:3 energy:=T -17.822687320067=T gnorm:=T 0.000356470142=T xtb:=T 6.7.1=T (edcfbbe)=T rel_kcal=0.77 energy=-6387.294938652551 free_energy=-6387.294938652551 pbc="F F F"
C       -0.77928451       1.00293413      -0.29509333      -0.00163985      -0.00891963      -0.03312658
C       -0.00104782      -0.06887114      -0.37416765      -0.00076051      -0.00867785      -0.03457596
C        1.47106007      -0.06886588      -0.37416417       0.00076037      -0.00867765      -0.03457598
C        2.24928849       1.00294600      -0.29509825       0.00163999      -0.00891962      -0.03312616
C        1.39533871       1.26986995       2.74458023       0.00017919       0.01450012       0.05027550
C        0.07464939       1.26988359       2.74458668      -0.00017938       0.01449974       0.05027518
H       -0.37438250       2.00177324      -0.21013423      -0.00776981      -0.00645834      -0.03571960
H       -1.85449831       0.91267345      -0.26558200      -0.00111106      -0.01621096      -0.03091012
H       -0.47153236      -1.04277279      -0.41540924      -0.01251367      -0.00394902      -0.02131421
H        1.94155177      -1.04276463      -0.41539285       0.01251332      -0.00394855      -0.02131550
H        3.32450280       0.91269382      -0.26557974       0.00111124      -0.01621140      -0.03091066
H        1.84437864       2.00178321      -0.21015434       0.00777059      -0.00645813      -0.03571845
H        1.95959099       0.34774256       2.77409614      -0.00288943       0.01222931       0.02861030
H        1.96407026       2.18382981       2.64169633      -0.00001280       0.01748712       0.07676145
H       -0.49406403       2.18385538       2.64170854       0.00001234       0.01748626       0.07676000
H       -0.48962160       0.34776783       2.77410787       0.00288946       0.01222861       0.02861079
16
Properties=species:S:1:pos:R:3:forces:R:3 energy:=T -17.822313566467=T gnorm:=T 0.000397917922=T xtb:=T 6.7.1=T (edcfbbe)=T rel_kcal=1.85 energy=-6387.2482198570415 free_energy=-6387.2482198570415 pbc="F F F"
C       -0.77595917       1.00350497      -0.25240389      -0.00357447      -0.01189548      -0.05842442
C       -0.00106822      -0.06828276      -0.35763857      -0.00109223      -0.01191175      -0.05038702
C        1.47108324      -0.06827594      -0.35763540       0.00109209      -0.01191144      -0.05038744
C        2.24596341       1.00352040      -0.25240913       0.00357477      -0.01189547      -0.05842390
C        1.39498231       1.27005345       2.68498932       0.00052042       0.01950299       0.08633799
C        0.07500384       1.27006949       2.68499578      -0.00052090       0.01950238       0.08633726
H       -0.36693405       1.99916185      -0.14977054      -0.01036236      -0.00871512      -0.06565333
H       -1.85050581       0.91524104      -0.19968927      -0.00379320      -0.01887838      -0.06436158
H       -0.47378060      -1.04078192      -0.40337893      -0.01187308      -0.00798598      -0.03121487
H        1.94380490      -1.04077123      -0.40336241       0.01187253      -0.00798530      -0.03121784
H        3.32051059       0.91526760      -0.19968700       0.00379353      -0.01887886      -0.06436277
H        1.83692803       1.99917466      -0.14979095       0.01036389      -0.00871481      -0.06565063
H        1.95722878       0.34656273       2.71225904      -0.00351881       0.01683790       0.06804366
H        1.96431929       2.18170590       2.56561966       0.00091069       0.02304687       0.11566195
H       -0.49431184       2.18173594       2.56563150      -0.00091155       0.02304562       0.11565932
H       -0.48726470       0.34659237       2.71227078       0.00351869       0.01683685       0.06804361
16
Properties=species:S:1:pos:R:3:forces:R:3 energy:=T -17.821683480713=T gnorm:=T 0.000421170293=T xtb:=T 6.7.1=T (edcfbbe)=T rel_kcal=3.47 energy=-6387.177909517948 free_energy=-6387.177909517948 pbc="F F F"
C       -0.77066484       1.00446255      -0.21300004      -0.00857864      -0.01420098      -0.09189365
C       -0.00091283      -0.06751418      -0.34822649      -0.00179392      -0.01467522      -0.06611024
C        1.47092881      -0.06750573      -0.34822521       0.00179411      -0.01467503      -0.06611085
C        2.24066817       1.00448091      -0.21300524       0.00857895      -0.01420108      -0.09189295
C        1.39459598       1.26983584       2.63011396       0.00058051       0.02508980       0.13366177
C        0.07539021       1.26985362       2.63011938      -0.00058097       0.02508929       0.13366104
H       -0.35580324       1.99663894      -0.09973919      -0.01596853      -0.01152212      -0.09108621
H       -1.84332276       0.91842544      -0.12659616      -0.01222983      -0.02166515      -0.11275523
H       -0.47638280      -1.03856880      -0.39413370      -0.01047821      -0.01181045      -0.03957195
H        1.94641003      -1.03855531      -0.39412325       0.01047781      -0.01180996      -0.03957532
H        3.31332675       0.91845667      -0.12659693       0.01223056      -0.02166530      -0.11275673
H        1.82579496       1.99665373      -0.09975493       0.01596909      -0.01152233      -0.09108146
H        1.95501350       0.34528535       2.65822047      -0.00561265       0.02082290       0.11627162
H        1.96476790       2.17858909       2.49335357       0.00066366       0.02796239       0.15148621
H       -0.49475807       2.17862229       2.49336312      -0.00066439       0.02796138       0.15148316
H       -0.48505178       0.34531812       2.65823065       0.00561244       0.02082188       0.11627078
16
Properties=species:S:1:pos:R:3:forces:R:3 energy:=T -17.819328002362=T gnorm:=T 0.000336922030=T xtb:=T 6.7.1=T (edcfbbe)=T rel_kcal=7.22 energy=-6387.015365871796 free_energy=-6387.015365871796 pbc="F F F"
C       -0.75931816       1.00639382      -0.15106008      -0.02244356      -0.01592325      -0.15138049
C       -0.00033062      -0.06504425      -0.34164402      -0.00409784      -0.01396581      -0.09374133
C        1.47034580      -0.06503406      -0.34164382       0.00409805      -0.01396454      -0.09374026
C        2.22931888       1.00641563      -0.15106738       0.02244341      -0.01592386      -0.15138053
C        1.39418592       1.26784810       2.54555919      -0.00015290       0.03640598       0.21988716
C        0.07580302       1.26786746       2.54556252       0.00015309       0.03640592       0.21988537
H       -0.33458250       1.99419524      -0.03695499      -0.02544332      -0.01964993      -0.09526205
H       -1.82503568       0.92344666       0.00195624      -0.03388465      -0.02995536      -0.20186711
H       -0.48015609      -1.03410250      -0.38531343      -0.00518020      -0.01526970      -0.04162241
H        1.95018450      -1.03408622      -0.38530531       0.00517947      -0.01526767      -0.04161991
H        3.29503674       0.92348312       0.00195400       0.03389074      -0.02995788      -0.20187282
H        1.80457126       1.99421344      -0.03697536       0.02543709      -0.01964879      -0.09525040
H        1.95298117       0.34288258       2.58285174      -0.01184876       0.02687417       0.18522465
H        1.96611163       2.17152261       2.38460793      -0.00313492       0.03148379       0.17876094
H       -0.49609691       2.17155859       2.38461341       0.00313493       0.03148403       0.17875874
H       -0.48301898       0.34291834       2.58285935       0.01184938       0.02687291       0.18522047
16
Properties=species:S:1:pos:R:3:forces:R:3 energy:=T -17.815412885497=T gnorm:=T 0.000359351609=T xtb:=T 6.7.1=T (edcfbbe)=T rel_kcal=12.06 energy=-6386.805730778626 free_energy=-6386.805730778626 pbc="F F F"
C       -0.74456713       1.00610881      -0.08507601      -0.05072935      -0.01353608      -0.22575454
C        0.00106999      -0.06335727      -0.33809290      -0.01111241      -0.00155888      -0.13700624
C        1.46894517      -0.06334753      -0.33807972       0.01111422      -0.00155532      -0.13699971
C        2.21456588       1.00613761      -0.08509586       0.05073529      -0.01353865      -0.22575755
C        1.39428750       1.26578597       2.45895718      -0.00098675       0.05264905       0.32560017
C        0.07570528       1.26580772       2.45896109       0.00098972       0.05264857       0.32558797
H       -0.31545877       1.99481236      -0.00518521      -0.02498044      -0.03338075      -0.01888595
H       -1.79642091       0.92518687       0.14641512      -0.06737495      -0.04357739      -0.28747158
H       -0.48279977      -1.03033949      -0.38832719       0.00722949      -0.01888693      -0.00498624
H        1.95282709      -1.03032676      -0.38826438      -0.00724279      -0.01887781      -0.00496676
H        3.26641196       0.92523462       0.14643698       0.06739960      -0.04359213      -0.28750087
H        1.78545080       1.99484421      -0.00528132       0.02495150      -0.03336247      -0.01882819
H        1.95419483       0.34311934       2.52169764      -0.01415559       0.03249662       0.20668288
H        1.96911547       2.16580587       2.28960979      -0.00558425       0.02578978       0.14180939
H       -0.49909446       2.16584575       2.28961622       0.00558367       0.02579090       0.14180822
H       -0.48423291       0.34316045       2.52170860       0.01416305       0.03249148       0.20666901
16
Properties=species:S:1:pos:R:3:forces:R:3 energy:=T -17.813369164842=T gnorm:=T 0.000460668107=T xtb:=T 6.7.1=T (edcfbbe)=T rel_kcal=16.08 energy=-6386.631249383356 free_energy=-6386.631249383356 pbc="F F F"
C       -0.73179688       1.00145102      -0.03272907      -0.10171960      -0.01059384      -0.34995410
C        0.00345537      -0.06713434      -0.32588392      -0.02999998       0.01432957      -0.19274334
C        1.46656542      -0.06712663      -0.32584526       0.03000934       0.01433328      -0.19272752
C        2.20179539       1.00149332      -0.03276321       0.10175036      -0.01061008      -0.34995781
C        1.39452459       1.26784494       2.39220645      -0.00464496       0.07216732       0.45733269
C        0.07546796       1.26787154       2.39221892       0.00464847       0.07216677       0.45730541
H       -0.31031853       1.99541804      -0.00614406      -0.00145666      -0.04008901       0.08113665
H       -1.77257803       0.92198187       0.24368209      -0.09595062      -0.05218648      -0.30501576
H       -0.48436397      -1.03047012      -0.40002733       0.01421506      -0.03467781       0.05769224
H        1.95439513      -1.03046810      -0.39986110      -0.01425668      -0.03465741       0.05772021
H        3.24255138       0.92205503       0.24375324       0.09599592      -0.05222062      -0.30507005
H        1.78032316       1.99546743      -0.00636465       0.00138672      -0.04002683       0.08132057
H        1.95570031       0.34915138       2.48706536      -0.00124618       0.03026807       0.17451195
H        1.97168269       2.16884616       2.24179196       0.00561312       0.02076876       0.07696039
H       -0.50165730       2.16889401       2.24181107      -0.00561657       0.02077448       0.07699334
H       -0.48574668       0.34920299       2.48708950       0.00127226       0.03025381       0.17449513
16
Properties=species:S:1:pos:R:3:forces:R:3 energy:=T -17.812259918842=T gnorm:=T 0.000930443810=T xtb:=T 6.7.1=T (edcfbbe)=T rel_kcal=22.27 energy=-6386.362615281466 free_energy=-6386.362615281466 pbc="F F F"
C       -0.71078636       0.99753963       0.04287275      -0.22134237      -0.04565946      -0.64279077
C        0.00962691      -0.07254426      -0.29759464      -0.09495176       0.03854076      -0.20791376
C        1.46039835      -0.07253941      -0.29753434       0.09497327       0.03852529      -0.20788289
C        2.18077842       0.99759464       0.04284281       0.22144162      -0.04574014      -0.64284968
C        1.39560308       1.26531907       2.29996101      -0.05802220       0.10312822       0.67084884
C        0.07439135       1.26534796       2.29999233       0.05800887       0.10312674       0.67070949
H       -0.31082344       1.99725990      -0.01264561       0.04296074      -0.02149743       0.20106990
H       -1.74656956       0.92103612       0.33244739      -0.11346079      -0.04817714      -0.20719314
H       -0.48567772      -1.02715471      -0.41548611       0.00656061      -0.05909546       0.11144125
H        1.95571641      -1.02716730      -0.41523577      -0.00662963      -0.05907950       0.11143858
H        3.21652393       0.92113634       0.33256540       0.11348023      -0.04822533      -0.20720692
H        1.78084321       1.99730895      -0.01295400      -0.04311110      -0.02135685       0.20146445
H        1.95575115       0.35474260       2.44925949       0.03300377       0.01327326       0.09520105
H        1.97322950       2.17087453       2.20108695       0.03904983       0.01949062      -0.02083394
H       -0.50320265       2.17092393       2.20112006      -0.03903901       0.01949591      -0.02070303
H       -0.48580258       0.35480056       2.44930227      -0.03292208       0.01325050       0.09520056
16
Properties=species:S:1:pos:R:3:forces:R:3 energy:=T -17.820307793211=T gnorm:=T 0.000596792534=T xtb:=T 6.7.1=T (edcfbbe)=T rel_kcal=36.5 energy=-6385.745962727033 free_energy=-6385.745962727033 pbc="F F F"
C       -0.65359595       1.00656142       0.21808484      -0.07541126      -0.01761191      -0.23028477
C        0.03475493      -0.08226475      -0.24770335      -0.03872100       0.03127477      -0.03031057
C        1.43526515      -0.08225765      -0.24763203       0.03862512       0.03135786      -0.03025925
C        2.12355190       1.00663330       0.21812665       0.07518129      -0.01768916      -0.22942278
C        1.41100127       1.24711769       2.11822330      -0.04875030       0.02954650       0.22588538
C        0.05901371       1.24714474       2.11833039       0.04910051       0.02961513       0.22667157
H       -0.32074843       1.99976198      -0.03713777       0.03331194       0.02510014       0.15922065
H       -1.70884068       0.92468602       0.42453517      -0.00981145      -0.01139708       0.07199577
H       -0.48555328      -1.01372712      -0.43768989      -0.00047267      -0.01047356       0.09621996
H        1.95560343      -1.01374912      -0.43740609       0.00041185      -0.01034163       0.09595795
H        3.17878749       0.92480320       0.42467315       0.00983077      -0.01152868       0.07188424
H        1.79078945       1.99977355      -0.03747300      -0.03346727       0.02513946       0.15992052
H        1.94918537       0.35824996       2.39920706       0.02596337      -0.03146355      -0.13082002
H        1.96930284       2.16670387       2.16228725       0.04494482      -0.01491729      -0.16278990
H       -0.49928057       2.16673900       2.16230826      -0.04493223      -0.01503033      -0.16290875
H       -0.47923664       0.35830247       2.39926604      -0.02580350      -0.03158066      -0.13096000
16
Properties=species:S:1:pos:R:3:forces:R:3 energy:=T -17.854084315501=T gnorm:=T 0.000809990318=T xtb:=T 6.7.1=T (edcfbbe)=T rel_kcal=-33.29 energy=-6388.771923473777 free_energy=-6388.771923473777 pbc="F F F"
C       -0.60712128       1.04717949       0.40021026       0.33237929       0.28450245       1.27725000
C        0.07052521      -0.11958653      -0.22862409       0.25010550      -0.25075839       0.13411254
C        1.39950897      -0.11959277      -0.22857180      -0.25004515      -0.25083789       0.13398699
C        2.07709563       1.04723804       0.40019101      -0.33225759       0.28433288       1.27703101
C        1.50522148       1.22148692       1.89643139       0.65219540      -0.18834385      -1.57564498
C       -0.03525465       1.22147602       1.89647468      -0.65240615      -0.18857940      -1.57606409
H       -0.34964697       1.98314503      -0.09558215      -0.19103918      -0.07535683      -0.31150603
H       -1.69188670       0.93886660       0.42149437       0.13166308       0.09358556       0.09375506
H       -0.49187009      -1.00680858      -0.48429308      -0.04690292       0.04674113      -0.26926272
H        1.96193068      -1.00685089      -0.48404595       0.04690481       0.04665521      -0.26971690
H        3.16185805       0.93896090       0.42159386      -0.13147993       0.09336743       0.09340127
H        1.81967798       1.98311966      -0.09582453       0.19083219      -0.07555115      -0.31031475
H        1.92376431       0.38462144       2.45276008      -0.15012174       0.14865830       0.26707532
H        1.93910768       2.15827011       2.23746517      -0.16272635      -0.05838908       0.38441337
H       -0.46910680       2.15829453       2.23746119       0.16259644      -0.05850942       0.38425661
H       -0.45380352       0.38465856       2.45285957       0.15030231       0.14848307       0.26722730
16
Properties=species:S:1:pos:R:3:forces:R:3 energy:=T -17.877429643677=T gnorm:=T 0.000779366901=T xtb:=T 6.7.1=T (edcfbbe)=T rel_kcal=-38.88 energy=-6389.014589307666 free_energy=-6389.014589307666 pbc="F F F"
C       -0.60764674       1.03055847       0.43101803      -0.12002763      -0.03741025      -0.02390173
C        0.06559113      -0.15031209      -0.19597832      -0.00925692      -0.10353253      -0.05558094
C        1.38732167      -0.15293074      -0.19503037       0.06115531      -0.09063453      -0.06292437
C        2.06140041       1.02844479       0.43100450       0.08268326      -0.05447489      -0.00916412
C        1.49700170       1.22352560       1.84155221       0.02727777       0.08464479       0.05511664
C       -0.04768231       1.22223728       1.84308390       0.00293025       0.06858306       0.03563447
H       -0.38037176       1.92328472      -0.15459063      -0.11608123       0.04550233      -0.08165345
H       -1.68484200       0.91346842       0.43426951      -0.15724741       0.05019702       0.14753408
H       -0.50298842      -0.98585665      -0.56892649      -0.12360345      -0.08332435      -0.14714505
H        1.95608004      -0.98805746      -0.56932632       0.10626383      -0.08820549      -0.14230342
H        3.13857713       0.91347023       0.45166272       0.15274084       0.02559579       0.08506398
H        1.83824988       1.91769865      -0.16542944       0.13468481       0.01096107       0.00280741
H        1.86290969       0.41936869       2.47946984       0.04290965       0.02032547      -0.02000922
H        1.87470377       2.15524671       2.25002501       0.06193521       0.10007676       0.10035249
H       -0.42305758       2.14841022       2.26684469      -0.09035808       0.08941632       0.05233730
H       -0.41062573       0.41058041       2.46839501      -0.05600622      -0.03772057       0.06383593
16
Properties=species:S:1:pos:R:3:forces:R:3 energy:=T -17.899836407102=T gnorm:=T 0.000635713530=T xtb:=T 6.7.1=T (edcfbbe)=T rel_kcal=36.5 energy=-6385.745962896862 free_energy=-6385.745962896862 pbc="F F F"
C       -0.29218185       0.92904436       0.34029745       0.32671726       4.57151647      -0.53233954
C       -0.18721431      -0.05164018      -0.37323063       0.23142884      13.28376248      18.19006079
C        0.92993835      -0.13564895      -0.24971555      -8.72048424       7.71643862      24.76747710
C        1.47578827       0.87911692       0.31623256      -6.04734789       1.47534477       4.53178104
C        0.94002273       0.51820250       1.38961023      -6.69205769      -6.39741629      -8.94576267
C       -0.26168788       0.47312935       1.50042180      13.87088206       3.85045635     -17.31241877
H        0.16870709       1.68217293       0.03995836      16.19264681      -4.25433654      -4.30676210
H       -1.35814415       0.61716830      -0.02859804       8.07283568      -7.21020050      -7.53097250
H       -0.59440507      -0.67810349      -0.94828256       4.18767913       2.45593920       4.56875574
H        1.55444385      -0.74661907      -1.00937091      -1.51045019      -1.25214965       0.59993368
H        2.47118193       0.72744040       0.54172786       2.22244079       3.82817875      -3.88155568
H        0.93847130       1.53949771      -0.34402646     -22.21812573      -5.06704134      18.71035809
H        1.28366573      -0.34216435       2.03968453       1.30538513      -4.43483137       1.31559466
H        1.19563376       1.45951058       1.54968666      -8.80882118     -15.42515678     -19.03828414
H       -0.30800229       1.25883289       2.19523625       1.62106825       0.53031917      -0.96363436
H       -0.32301342      -0.56526789       1.60825056       5.96620298       6.32917667     -10.17223133
16
Properties=species:S:1:pos:R:3:forces:R:3 energy:=T -17.914809188377=T gnorm:=T 0.000576727536=T xtb:=T 6.7.1=T (edcfbbe)=T rel_kcal=-36.1 energy=-6388.893878753213 free_energy=-6388.893878753213 pbc="F F F"
C        1.51763691       0.03281013      -0.00000002       0.00514964      -0.01801921       0.00000000
C        0.66135821       1.25689226      -0.00000002      -0.00617720      -0.01689436       0.00000003
C       -0.66135808       1.25689224       0.00000002       0.00617443      -0.01689398      -0.00000001
C       -1.51763683       0.03281013       0.00000001      -0.00515089      -0.01802001       0.00000001
C       -0.77552826      -1.32045305      -0.00000002       0.00521984       0.00354255       0.00000000
C        0.77552826      -1.32045299       0.00000002      -0.00522102       0.00354080       0.00000001
H        2.18156658       0.08210049       0.86521537       0.00195991       0.00466409      -0.00213867
H        2.18156658       0.08210046      -0.86521541       0.00195986       0.00466413       0.00213863
H        1.18581023       2.20539224      -0.00000004      -0.00944000       0.00050731       0.00000003
H       -1.18581028       2.20539216       0.00000007       0.00944158       0.00050666      -0.00000007
H       -2.18156663       0.08210047       0.86521534      -0.00195868       0.00466430      -0.00213854
H       -2.18156663       0.08210050      -0.86521532      -0.00195868       0.00466431       0.00213856
H       -1.10971331      -1.89082043       0.86426180       0.00276252       0.01076833      -0.00483072
H       -1.10971327      -1.89082039      -0.86426189       0.00276250       0.01076841       0.00483069
H        1.10971323      -1.89082041       0.86426180      -0.00276189       0.01076834      -0.00482898
H        1.10971328      -1.89082048      -0.86426169      -0.00276191       0.01076831       0.00482902
