16
Properties=species:S:1:pos:R:3:forces:R:3 energy:=T -17.822955842371=T gnorm:=T 0.000913890081=T xtb:=T 6.7.1=T (edcfbbe)=T rel_kcal=0.0 energy=-484.98733151748837 free_energy=-484.98733151748837 pbc="F F F"
C       -0.77705366       1.00256541      -0.37427009      -0.01207854       0.01257907       0.00125941
C        0.00803256      -0.06812764      -0.41521323       0.01623836      -0.01362038       0.00246056
C        1.46197116      -0.06812565      -0.41521222      -0.01623608      -0.01362150       0.00245792
C        2.24705464       1.00256939      -0.37426775       0.01207601       0.01257438       0.00125594
C        1.39307079       1.26848009       2.85079376       0.00564117       0.00682406       0.00096180
C        0.07692558       1.26848884       2.85080268      -0.00563893       0.00682653       0.00098985
H       -0.38376945       2.00369825      -0.34107373       0.00072693      -0.00521001       0.00124009
H       -1.85021750       0.91469762      -0.37351703       0.00825219      -0.00230191      -0.00133898
H       -0.44762225      -1.05037125      -0.44792900       0.00204253       0.00634973      -0.00213981
H        1.91762870      -1.05036797      -0.44792791      -0.00204273       0.00634818      -0.00213851
H        3.32021863       0.91470447      -0.37351374      -0.00824911      -0.00230318      -0.00133804
H        1.85376784       2.00370104      -0.34107232      -0.00072977      -0.00520328       0.00124155
H        1.96396440       0.35981628       2.94334149       0.00061834      -0.00812517      -0.00300304
H        1.96586751       2.17645168       2.75784428      -0.00472929       0.00349055       0.00054501
H       -0.49586103       2.17646681       2.75785914       0.00472353       0.00350392       0.00054847
H       -0.49397791       0.35983118       2.94335566      -0.00061463      -0.00811099      -0.00300220
16
Properties=species:S:1:pos:R:3:forces:R:3 energy:=T -17.822687320067=T gnorm:=T 0.000356470142=T xtb:=T 6.7.1=T (edcfbbe)=T rel_kcal=0.38 energy=-484.9708149075266 free_energy=-484.9708149075266 pbc="F F F"
C       -0.77192776       1.00622111      -0.22972684      -0.00299683      -0.00199658      -0.01641465
C        0.00923593      -0.06294839      -0.34657173      -0.00065392      -0.00178031      -0.00499127
C        1.46105470      -0.06294479      -0.34642873       0.00068235      -0.00170034      -0.00498389
C        2.24217470       1.00623854      -0.22940484       0.00295444      -0.00207508      -0.01641945
C        1.39331599       1.26112473       2.65465432      -0.00020582       0.00374897       0.02323621
C        0.07615166       1.26037340       2.65451671       0.00019589       0.00371272       0.02324366
H       -0.37445614       2.00313167      -0.15759661      -0.00305300      -0.00229680      -0.00937899
H       -1.84475529       0.92047094      -0.20757123      -0.00363465      -0.00280956      -0.02650541
H       -0.44938774      -1.04098663      -0.42345624       0.00068942      -0.00217456      -0.00763891
H        1.91970669      -1.04097409      -0.42324254      -0.00069759      -0.00218830      -0.00763643
H        3.31499894       0.92051518      -0.20703634       0.00367262      -0.00282180      -0.02650517
H        1.84466453       2.00313683      -0.15732883       0.00305930      -0.00228477      -0.00937077
H        1.96370300       0.35055608       2.72883596       0.00017338       0.00364433       0.01977658
H        1.96525215       2.17121281       2.58085534      -0.00031843       0.00367405       0.02190016
H       -0.49681170       2.16980452       2.58060686       0.00030312       0.00368847       0.02187995
H       -0.49320864       0.34915103       2.72857040      -0.00017026       0.00365954       0.01980838
16
Properties=species:S:1:pos:R:3:forces:R:3 energy:=T -17.822313566467=T gnorm:=T 0.000397917922=T xtb:=T 6.7.1=T (edcfbbe)=T rel_kcal=4.17 energy=-484.8066940422306 free_energy=-484.8066940422306 pbc="F F F"
C       -0.75048984       1.04405283      -0.05585917      -0.00967254      -0.01195870      -0.09145018
C        0.01436032      -0.02852906      -0.27039357      -0.00282361      -0.00773633      -0.04727772
C        1.45696503      -0.02858418      -0.26972020       0.00283214      -0.00797544      -0.04724958
C        2.22159423       1.04398152      -0.05436754       0.00993276      -0.01182741      -0.09140631
C        1.39554201       1.19856173       2.40059681      -0.00491746       0.01889210       0.13015232
C        0.07213668       1.19491777       2.39995762       0.00473591       0.01889485       0.13021011
H       -0.34860117       2.04062273      -0.03100506      -0.00907217      -0.00767254      -0.07103171
H       -1.81849517       0.96338250       0.05572299      -0.00872221      -0.01359376      -0.11003762
H       -0.45459952      -1.00198784      -0.33232754       0.00399673      -0.01339753      -0.03563567
H        1.92593899      -1.00204812      -0.33136922      -0.00395347      -0.01343828      -0.03546421
H        3.28949875       0.96337295       0.05822595       0.00877393      -0.01368024      -0.10990489
H        1.81964400       2.04052552      -0.02977457       0.00924830      -0.00773244      -0.07116535
H        1.96327519       0.29068264       2.50854579       0.00254859       0.01504629       0.10044140
H        1.96485339       2.10843630       2.32212999       0.00218760       0.02051262       0.12455587
H       -0.50217620       2.10159945       2.32113369      -0.00237634       0.02056167       0.12472588
H       -0.49064182       0.28385558       2.50716253      -0.00271816       0.01510512       0.10053764
16
Properties=species:S:1:pos:R:3:forces:R:3 energy:=T -17.821683480713=T gnorm:=T 0.000421170293=T xtb:=T 6.7.1=T (edcfbbe)=T rel_kcal=-61.61 energy=-487.65895055675105 free_energy=-487.65895055675105 pbc="F F F"
C       -0.59737364       1.07405400       0.41210810       0.06127397      -0.01069336       0.15779553
C        0.07343875      -0.11161203      -0.19642200       0.01318673      -0.05545461       0.04141389
C        1.39759917      -0.11141249      -0.19568725      -0.01326137      -0.05532261       0.04149959
C        2.06752801       1.07467954       0.41307911      -0.06165584      -0.01035315       0.15761995
C        1.50948546       1.19171713       1.85644434       0.01030252       0.03031915      -0.16960499
C       -0.04068008       1.18970514       1.85603264      -0.01035910       0.03082533      -0.16954350
H       -0.33017336       1.99496630      -0.11480800      -0.01369321      -0.07445047      -0.08133082
H       -1.68375765       0.97946772       0.36517928       0.06208050      -0.00667256       0.30998628
H       -0.51172783      -0.96934728      -0.48506797      -0.05192160       0.05189504      -0.17314610
H        1.98322730      -0.96897285      -0.48391139       0.05272779       0.05215046      -0.17266812
H        3.15397085       0.98010250       0.36729331      -0.06259436      -0.00587113       0.31028363
H        1.80086744       1.99518025      -0.11482275       0.01350851      -0.07447045      -0.08184584
H        1.88614953       0.34900114       2.44210919      -0.06432052       0.03936366      -0.05951622
H        1.89379766       2.10250165       2.31830965      -0.04959843       0.02386290      -0.02608127
H       -0.42792185       2.09848276       2.31935651       0.05121810       0.02469088      -0.02445133
H       -0.41531640       0.34475120       2.43981203       0.06310633       0.04018092      -0.06041069
16
Properties=species:S:1:pos:R:3:forces:R:3 energy:=T -17.819328002362=T gnorm:=T 0.000336922030=T xtb:=T 6.7.1=T (edcfbbe)=T rel_kcal=-60.87 energy=-487.6269631250015 free_energy=-487.6269631250015 pbc="F F F"
C       -0.73830857       0.86116787       0.51441499       0.01189464       0.02044032      -0.01539941
C        0.06567171      -0.11921588      -0.27832634      -0.00045539       0.01372058       0.00353610
C        1.38684734      -0.12457841      -0.26522457      -0.00178456       0.01251632       0.00340751
C        2.18716252       0.85141511       0.53680534      -0.01334670       0.01714923      -0.01406020
C        1.48599208       1.35976185       1.80781055       0.00217344      -0.01354461      -0.00931613
C       -0.05583306       1.33034864       1.80849550      -0.00415662      -0.01837358      -0.00584305
H       -0.94288933       1.72115014      -0.13341831       0.04343840       0.01721771       0.02581307
H       -1.70626798       0.42281185       0.77518126       0.02215875       0.04078674      -0.07038567
H       -0.48532025      -0.79330085      -0.92058083      -0.00082536      -0.02296697       0.08122896
H        1.94444217      -0.80274681      -0.89755542       0.00015426      -0.02341122       0.08212598
H        3.14158797       0.39990376       0.82338598      -0.02364540       0.03371453      -0.06428519
H        2.42224066       1.69679220      -0.12009943      -0.03710421       0.01354512       0.02597632
H        1.82786639       0.75169079       2.64756969       0.01639761      -0.01117345      -0.02719243
H        1.82824492       2.37865098       2.00069353       0.00149414      -0.02165616      -0.00203186
H       -0.43440779       2.32567683       2.05096418      -0.00609760      -0.03011157       0.01397663
H       -0.37663178       0.66799265       2.61461522      -0.01029540      -0.02785299      -0.02755061
16
Properties=species:S:1:pos:R:3:forces:R:3 energy:=T -17.815412885497=T gnorm:=T 0.000359351609=T xtb:=T 6.7.1=T (edcfbbe)=T rel_kcal=-66.74 energy=-487.88161635847393 free_energy=-487.88161635847393 pbc="F F F"
C       -0.89839948       0.61696270       0.32711125       0.01233148       0.01011349       0.00798751
C        0.01963088      -0.02907404      -0.66205402       0.00671360       0.01095617       0.01372202
C        1.33266605      -0.07680908      -0.52216485       0.00570852      -0.00119823       0.01546363
C        2.07816910       0.48033274       0.65071299      -0.02010389      -0.00185792       0.01141169
C        1.20877711       1.35583715       1.55997318      -0.01146541       0.00861629      -0.02471078
C       -0.22964602       0.85030288       1.68291245       0.01933518      -0.02221702       0.00552738
H       -1.25336707       1.56390442      -0.09449766       0.04662624       0.02346211       0.02450688
H       -1.77998812      -0.01626800       0.46548381      -0.00476604       0.03802590      -0.01473614
H       -0.45306419      -0.45702767      -1.53694368       0.00585794       0.02832164       0.01741963
H        1.94231358      -0.55991942      -1.27496950       0.00956420       0.00517522       0.02141220
H        2.50337374      -0.35848779       1.21506895      -0.07316092       0.02636164       0.01716779
H        2.92667666       1.06858065       0.28353974      -0.03310219      -0.04083877       0.04307529
H        1.65456278       1.38817774       2.55884915      -0.01263772       0.06587398      -0.06484430
H        1.19589219       2.37817712       1.17428862      -0.03690909      -0.04724343      -0.07246157
H       -0.81247209       1.58388178       2.24709646       0.01583408      -0.07467453       0.03684250
H       -0.23924413      -0.08451005       2.24750035       0.07017404      -0.02887654      -0.03778372
16
Properties=species:S:1:pos:R:3:forces:R:3 energy:=T -17.813369164842=T gnorm:=T 0.000460668107=T xtb:=T 6.7.1=T (edcfbbe)=T rel_kcal=-67.91 energy=-487.9322484697427 free_energy=-487.9322484697427 pbc="F F F"
C       -1.13142477       0.21290801      -0.26080159      -0.00928118      -0.01030324      -0.00648570
C        0.00041639       0.01439531      -1.22164740      -0.00044925      -0.00227962      -0.01076857
C        1.26752373      -0.02519426      -0.84568408       0.00819867       0.00267812      -0.01319199
C        1.71962910       0.14908154       0.57116120       0.01911363      -0.00288172      -0.00869707
C        0.59191025       0.66146938       1.45927363      -0.00042684       0.01233951       0.02062299
C       -0.68305305      -0.11507157       1.15910490      -0.01748451       0.00210680       0.01116179
H       -1.46603967       1.25509723      -0.30880829      -0.01810500      -0.00920955      -0.01592170
H       -1.97935935      -0.41079481      -0.55174728      -0.00655468      -0.03023825      -0.00793150
H       -0.26718985      -0.09831176      -2.26303892      -0.00238424      -0.00032216      -0.01510284
H        2.05075027      -0.19423649      -1.57166953       0.01314119       0.00659067      -0.02126877
H        2.07986452      -0.81098015       0.95520859       0.02229797      -0.03044023      -0.03790458
H        2.56374950       0.84182146       0.59875244       0.04660424       0.00821706      -0.00127697
H        0.87460538       0.56297460       2.50800536      -0.02189933       0.00032230       0.04583291
H        0.41464088       1.71778943       1.25139198       0.02344366       0.04570439       0.02804820
H       -1.46726197       0.13747978       1.87392878      -0.02485862       0.01349475       0.01547464
H       -0.47905280      -1.18499246       1.23705939      -0.03135572      -0.00577883       0.01740919
16
Properties=species:S:1:pos:R:3:forces:R:3 energy:=T -17.812259918842=T gnorm:=T 0.000930443810=T xtb:=T 6.7.1=T (edcfbbe)=T rel_kcal=-65.01 energy=-487.8065671048324 free_energy=-487.8065671048324 pbc="F F F"
C       -1.18373710      -0.14497970      -1.01009877      -0.03498248      -0.02160936      -0.01617435
C        0.18189801       0.06881897      -1.57655442       0.00255760       0.00353649      -0.04074645
C        1.23083711       0.12848247      -0.77736257       0.04829227       0.01566835      -0.03144891
C        1.13081693       0.09822702       0.71251105       0.06748346       0.01280042       0.02667664
C       -0.19885252      -0.43555535       1.26126197      -0.03304324       0.01379483       0.03108392
C       -1.05387315      -1.08671338       0.18452096      -0.04138418      -0.02402890      -0.00038773
H       -1.60444624       0.81042687      -0.68235071      -0.04222267      -0.01382416       0.00814252
H       -1.84993895      -0.56207560      -1.76405594      -0.04859009      -0.04454655      -0.03635764
H        0.28895201       0.13023758      -2.64759120      -0.00241629       0.01264601      -0.06931916
H        2.22827779       0.24860830      -1.17020189       0.08044716       0.03534230      -0.05787101
H        1.95332208      -0.49354327       1.11332693       0.13753374      -0.02061532      -0.01576895
H        1.27425745       1.12458497       1.05672216       0.09722529       0.05146659       0.12181036
H        0.01069910      -1.15568795       2.05332721      -0.08729725      -0.01308431       0.03970947
H       -0.76752939       0.38282227       1.70079046      -0.04910170       0.06860614       0.05055781
H       -2.03499701      -1.32341479       0.59488015      -0.06770409      -0.04881027       0.01266146
H       -0.58331600      -2.01426321      -0.14646506      -0.02679752      -0.02734227      -0.02256798
16
Properties=species:S:1:pos:R:3:forces:R:3 energy:=T -17.820307793211=T gnorm:=T 0.000596792534=T xtb:=T 6.7.1=T (edcfbbe)=T rel_kcal=-63.47 energy=-487.73983184523837 free_energy=-487.73983184523837 pbc="F F F"
C       -0.77352735      -0.50068736      -1.74065108      -0.03945027      -0.02311385      -0.08373427
C        0.49760173       0.18935860      -1.38241280       0.04227610       0.00743921      -0.04782156
C        0.76507804       0.32373957      -0.09623594       0.06576370       0.02921697       0.04267436
C       -0.26646876      -0.12444357       0.88344303       0.00311949       0.02264931       0.09093737
C       -0.83064494      -1.51835221       0.56056832      -0.01489838      -0.00296074       0.04188180
C       -0.83945474      -1.80437563      -0.93944720      -0.02402127      -0.01847966      -0.05549328
H       -1.61697702       0.13512585      -1.45941819      -0.10485736      -0.03008780      -0.04946609
H       -0.82914569      -0.70095547      -2.80590234      -0.03976220      -0.04675959      -0.15362005
H        1.16553795       0.51725736      -2.15873354       0.08445117       0.00853146      -0.08778477
H        1.66720159       0.78390093       0.26391482       0.12470598       0.05020425       0.07974033
H        0.12193892      -0.11438020       1.89731945       0.02939055       0.04852553       0.14722085
H       -1.08806451       0.59615246       0.82514928      -0.05291483       0.00994271       0.10652575
H       -0.24485280      -2.28414080       1.06828604       0.04854212       0.01344940       0.04827609
H       -1.84541607      -1.57199536       0.95153268      -0.07877789      -0.02455794       0.07427622
H       -1.73177456      -2.36855589      -1.20323926      -0.07507931      -0.04363748      -0.07365766
H        0.02784441      -2.41267785      -1.19808774       0.03151243      -0.00036177      -0.07995509
16
Properties=species:S:1:pos:R:3:forces:R:3 energy:=T -17.854084315501=T gnorm:=T 0.000809990318=T xtb:=T 6.7.1=T (edcfbbe)=T rel_kcal=-60.5 energy=-487.6106700317848 free_energy=-487.6106700317848 pbc="F F F"
C        0.37689953      -0.70216105      -1.62673017      -0.04278805       0.33038690       0.05198488
C        0.33861108       0.24935344      -0.44943130      -0.04872400      -0.36746460      -0.19946698
C       -0.74146000       0.22355608       0.31575014      -0.12609177      -0.34511860      -0.15483305
C       -1.84971051      -0.74063988      -0.03500303       0.14640553       0.04016242       0.03934541
C       -1.37601026      -2.13167909      -0.54844702       0.24915641       0.03285635       0.03049904
C        0.01211455      -2.14468696      -1.25023690      -0.23259796       0.22548874       0.18423930
H       -0.40794419      -0.37956681      -2.30763275      -0.08051052       0.19495155      -0.29596196
H        1.32340222      -0.63129342      -2.15525846       0.15920079      -0.15734181       0.03519951
H        1.14983669       0.95039074      -0.27505247      -0.10243293      -0.27856774      -0.12905370
H       -0.87463103       0.91220316       1.13954675      -0.06709471      -0.18949267       0.00938086
H       -2.51998242      -0.89264803       0.81478387       0.10844212       0.02286189       0.02132743
H       -2.45787182      -0.26341990      -0.81407147       0.10467542      -0.03968514      -0.04483641
H       -1.39765588      -2.83057790       0.28858589       0.25134513       0.01978782       0.05123767
H       -2.13000037      -2.49808166      -1.24928808       0.04746644       0.07657947      -0.04916234
H       -0.02752538      -2.78792074      -2.13651740      -0.16393727       0.30335647      -0.08451964
H        0.82228532      -2.57990234      -0.66569832      -0.20251462       0.13123893       0.53461997
16
Properties=species:S:1:pos:R:3:forces:R:3 energy:=T -17.877429643677=T gnorm:=T 0.000779366901=T xtb:=T 6.7.1=T (edcfbbe)=T rel_kcal=205.34 energy=-476.0830035255524 free_energy=-476.0830035255524 pbc="F F F"
C        1.23959150      -2.61517872      -1.28064716       0.64808120       1.53953309       1.19836003
C        0.36974627       2.22290362       1.31254006      -0.70666187       0.15286805       0.12579916
C       -0.80268190       2.07857282       1.09045128       0.44129137       0.07777137       0.10645223
C       -3.17273897      -1.09608289      -1.07128991      -2.34420566      -2.45842242      -1.66606672
C       -2.92693444      -2.42652038      -1.31317640       1.27376873       0.80495137      -0.39509535
C        1.56538211      -3.52644747      -2.13670092       0.08272971       0.65321366       0.37836668
H        1.31409267      -1.38367398      -0.69651887      -0.13730075      -1.17222780      -1.89984437
H        1.53897272       0.32857142      -0.81180188      -0.16472218      -1.38300573       0.01725188
H        1.35348952       2.45688806       1.62075619      -0.18326078      -0.20775683      -0.23600346
H       -1.83202506       1.93563578       0.87621110       0.44730561      -0.03831170      -0.00395620
H       -4.15330611      -1.19976129      -0.53252056       1.16209345       1.56926811       0.17264731
H       -3.10236653      -0.17941130      -1.73010021       0.72648257      -1.46342074       1.06081046
H       -3.46099026      -3.07021130      -0.61334949       0.44672525      -0.20556420      -0.43017269
H       -2.17120858      -3.02236128      -1.98800594      -1.24352878       1.76246105       1.26385259
H        1.60387147      -4.49184334      -1.64159934      -0.29961932      -0.25130572       0.02802563
H        1.85556406      -3.65718911      -3.18597823      -0.14917853       0.61994844       0.27957283
16
Properties=species:S:1:pos:R:3:forces:R:3 energy:=T -17.899836407102=T gnorm:=T 0.000635713530=T xtb:=T 6.7.1=T (edcfbbe)=T rel_kcal=251.59 energy=-474.0775189124649 free_energy=-474.0775189124649 pbc="F F F"
C        0.24639699      -4.99152331      -3.00912362       0.09421106       0.03076009       0.02335351
C        1.29419597       2.09497845       1.19045829      -0.00862521       0.04566161       0.03460185
C       -1.33851554       2.03173651       0.98171427       0.04872125       0.02880382       0.02102020
C       -0.14827035       2.08383459       1.09581822      -0.08845606      -0.07571206      -0.06047787
C       -4.61676446      -3.49940551      -0.78712304       0.02278550      -0.00432077       0.00331401
C        1.48194894      -4.70338361      -2.84900671      -0.04313401      -0.00725536      -0.01440934
H        1.65695541       1.10084059       1.44777698       0.01299759      -0.03159442      -0.03048908
H        1.72234591       2.40170494       0.23659398       0.01874386      -0.02310589      -0.00194198
H        1.61714616       2.79229034       1.96184606      -0.01107190       0.04349724       0.02367083
H       -2.38344176       2.00801911       0.88871212       0.02821990       0.01250353       0.01171529
H       -5.67098720      -3.18763538      -0.70911858       0.01411364       0.00637242       0.00467301
H       -4.00688351       1.65275169      -3.13418991       0.00029883      -0.00247757       0.00376866
H       -4.05651397      -2.86217977      -0.08248829      -0.02484632      -0.00501370      -0.01651580
H       -0.56694276      -5.25012645      -3.63335659      -0.05020141      -0.01034671       0.00473380
H        1.91547325      -4.46990842      -1.88409635      -0.02905831      -0.01186226      -0.00832418
H        2.20601964      -4.66505479      -3.66607092       0.01530158       0.00409001       0.00130707
16
Properties=species:S:1:pos:R:3:forces:R:3 energy:=T -17.914809188377=T gnorm:=T 0.000576727536=T xtb:=T 6.7.1=T (edcfbbe)=T rel_kcal=-57.64 energy=-487.48678837802913 free_energy=-487.48678837802913 pbc="F F F"
C        1.51329821       0.03064373      -0.00000000      -0.00925936      -0.00193171       0.00000014
C        0.65902635       1.25274202      -0.00000004       0.01447427      -0.00159949       0.00000009
C       -0.65902695       1.25274342       0.00000000      -0.01447144      -0.00164768       0.00000021
C       -1.51329816       0.03064397      -0.00000002       0.00926521      -0.00192159      -0.00000008
C       -0.77324691      -1.31860024      -0.00000003       0.00231556       0.00490783       0.00000040
C        0.77324746      -1.31860042       0.00000003      -0.00232298       0.00490149      -0.00000051
H        2.16913266       0.08540850       0.87457424       0.00565915      -0.00045261       0.00272233
H        2.16913264       0.08540843      -0.87457425       0.00565934      -0.00045236      -0.00272239
H        1.20488122       2.18706907      -0.00000005       0.00445122       0.00134223       0.00000001
H       -1.20488324       2.18706945       0.00000011      -0.00443941       0.00134618      -0.00000019
H       -2.16913194       0.08540951       0.87457448      -0.00566582      -0.00045983       0.00272277
H       -2.16913198       0.08540956      -0.87457448      -0.00566568      -0.00046007      -0.00272276
H       -1.10545223      -1.88273578       0.87293561      -0.00084100      -0.00089290      -0.00154681
H       -1.10545219      -1.88273577      -0.87293569      -0.00084095      -0.00089288       0.00154668
H        1.10545251      -1.88273603       0.87293572       0.00084092      -0.00089333      -0.00154682
H        1.10545256      -1.88273607      -0.87293562       0.00084098      -0.00089328       0.00154695
