16
Properties=species:S:1:pos:R:3:forces:R:3 energy:=T -17.822955842371=T gnorm:=T 0.000913890081=T xtb:=T 6.7.1=T (edcfbbe)=T rel_kcal=0.0 energy=-6387.32854216928 free_energy=-6387.32854216928 pbc="F F F"
C       -0.77958969       1.00073178      -0.37190509      -0.02220694      -0.00237591      -0.03455149
C       -0.00051213      -0.07237956      -0.42047766      -0.00949829       0.00115208      -0.01405742
C        1.47051578      -0.07237752      -0.42047644       0.00949583       0.00114390      -0.01405767
C        2.24959041       1.00073571      -0.37190246       0.02221231      -0.00236845      -0.03455208
C        1.39574903       1.27271074       2.85269103      -0.00056188       0.01074823       0.05352083
C        0.07424779       1.27271889       2.85269950       0.00056157       0.01074758       0.05351602
H       -0.38107549       2.00372079      -0.32111484       0.01498392       0.00474359       0.00967780
H       -1.85455079       0.90699278      -0.36316309      -0.02059463      -0.00975162       0.00091541
H       -0.47434826      -1.04505545      -0.44866168       0.01070119      -0.01713355      -0.01092327
H        1.94435453      -1.04505217      -0.44865998      -0.01070172      -0.01713284      -0.01092324
H        3.32455182       0.90699966      -0.36315898       0.02059249      -0.00975197       0.00091530
H        1.85107362       2.00372375      -0.32111237      -0.01498366       0.00474236       0.00967708
H        1.96150400       0.35353027       2.92559020      -0.00582171       0.02130447      -0.01257547
H        1.96412861       2.18695925       2.74701542      -0.00619677      -0.00868564       0.00799596
H       -0.49412188       2.18697435       2.74703031       0.00619704      -0.00868680       0.00799687
H       -0.49151735       0.35354528       2.92560612       0.00582125       0.02130458      -0.01257461
16
Properties=species:S:1:pos:R:3:forces:R:3 energy:=T -17.822687320067=T gnorm:=T 0.000356470142=T xtb:=T 6.7.1=T (edcfbbe)=T rel_kcal=0.7432503978979811 energy=-6387.296311781784 free_energy=-6387.296311781784 pbc="F F F"
C       -0.77938971       1.00198606      -0.29705094      -0.00006949      -0.00613195      -0.02761890
C       -0.00130913      -0.06981420      -0.37859823       0.00092278      -0.00707520      -0.01452211
C        1.47132150      -0.06980888      -0.37859470      -0.00092296      -0.00707491      -0.01452274
C        2.24939375       1.00199806      -0.29705581       0.00006948      -0.00613183      -0.02761886
C        1.39532661       1.27141011       2.74873533      -0.00005983       0.01190250       0.02648666
C        0.07466140       1.27142382       2.74874181       0.00005945       0.01190205       0.02648552
H       -0.37519715       2.00081243      -0.21016755      -0.00431635      -0.00183434      -0.04181739
H       -1.85455225       0.91104489      -0.26578193       0.00054024      -0.01542963      -0.03039218
H       -0.47519507      -1.04225608      -0.41553078       0.00818427      -0.01209198      -0.03406295
H        1.94521462      -1.04224775      -0.41551442      -0.00818443      -0.01209205      -0.03406396
H        3.32455680       0.91106546      -0.26577967      -0.00054016      -0.01543007      -0.03039255
H        1.84519329       2.00082254      -0.21018770       0.00431717      -0.00183403      -0.04181599
H        1.95840044       0.34844416       2.77347935       0.00421877       0.01630054       0.03686421
H        1.96359870       2.18555137       2.64490103       0.00449319       0.01436083       0.08506362
H       -0.49359250       2.18557702       2.64491302      -0.00449356       0.01436017       0.08506316
H       -0.48843130       0.34846953       2.77349120      -0.00421857       0.01629993       0.03686447
16
Properties=species:S:1:pos:R:3:forces:R:3 energy:=T -17.822313566467=T gnorm:=T 0.000397917922=T xtb:=T 6.7.1=T (edcfbbe)=T rel_kcal=1.8678900879088878 energy=-6387.2475427893905 free_energy=-6387.2475427893905 pbc="F F F"
C       -0.77568777       1.00242028      -0.25280264      -0.00204169      -0.00897189      -0.05038193
C       -0.00135249      -0.06934027      -0.36291367       0.00081513      -0.01084036      -0.02368885
C        1.47136772      -0.06933317      -0.36291068      -0.00081535      -0.01084014      -0.02368996
C        2.24569201       1.00243616      -0.25280776       0.00204181      -0.00897206      -0.05038182
C        1.39495497       1.27206485       2.68718996       0.00032144       0.01574682       0.05576813
C        0.07503102       1.27208112       2.68719632      -0.00032225       0.01574612       0.05576652
H       -0.36683655       1.99765329      -0.14690795      -0.00748038      -0.00270452      -0.07534827
H       -1.85000318       0.91367892      -0.19542988      -0.00272649      -0.01847353      -0.06702178
H       -0.47770470      -1.04032889      -0.40279908       0.00954335      -0.01644231      -0.04843985
H        1.94772940      -1.04031768      -0.40278341      -0.00954324      -0.01644224      -0.04844276
H        3.32000798       0.91370612      -0.19542807       0.00272665      -0.01847398      -0.06702260
H        1.83683047       1.99766651      -0.14692756       0.00748161      -0.00270472      -0.07534553
H        1.95549419       0.34744308       2.70884278       0.00614616       0.02100442       0.08073948
H        1.96385717       2.18357236       2.56480794       0.00655860       0.02068290       0.12837580
H       -0.49384958       2.18360276       2.56481921      -0.00655932       0.02068197       0.12837437
H       -0.48553067       0.34747311       2.70885449      -0.00614604       0.02100352       0.08073904
16
Properties=species:S:1:pos:R:3:forces:R:3 energy:=T -17.821683480713=T gnorm:=T 0.000421170293=T xtb:=T 6.7.1=T (edcfbbe)=T rel_kcal=3.5673060250419772 energy=-6387.173849140084 free_energy=-6387.173849140084 pbc="F F F"
C       -0.76972892       1.00340381      -0.21287335      -0.00698148      -0.01103040      -0.07902028
C       -0.00122110      -0.06851370      -0.35586021       0.00059395      -0.01435230      -0.03043093
C        1.47123707      -0.06850491      -0.35585979      -0.00059356      -0.01435229      -0.03043223
C        2.23973201       1.00342254      -0.21287814       0.00698173      -0.01103044      -0.07901989
C        1.39455842       1.27212923       2.63184758       0.00045837       0.01958836       0.09378151
C        0.07542795       1.27214718       2.63185259      -0.00045907       0.01958775       0.09377991
H       -0.35410571       1.99462728      -0.09585854      -0.01472475      -0.00325533      -0.10372372
H       -1.84162516       0.91715983      -0.11716308      -0.01264277      -0.02180578      -0.12118899
H       -0.48054211      -1.03803168      -0.39333664       0.01172124      -0.02077639      -0.06183917
H        1.95056965      -1.03801745      -0.39332960      -0.01172129      -0.02077690      -0.06184241
H        3.31162907       0.91719166      -0.11716532       0.01264306      -0.02180564      -0.12118993
H        1.82409699       1.99464203      -0.09587101       0.01472527      -0.00325554      -0.10371941
H        1.95276188       0.34616866       2.65385352       0.00660929       0.02468790       0.13356339
H        1.96434268       2.18020948       2.48938523       0.00732856       0.02694517       0.16886077
H       -0.49433243       2.18024291       2.48939359      -0.00732911       0.02694456       0.16885912
H       -0.48280029       0.34620167       2.65386318      -0.00660942       0.02468727       0.13356228
16
Properties=species:S:1:pos:R:3:forces:R:3 energy:=T -17.819328002362=T gnorm:=T 0.000336922030=T xtb:=T 6.7.1=T (edcfbbe)=T rel_kcal=7.226047199286481 energy=-6387.015191107575 free_energy=-6387.015191107575 pbc="F F F"
C       -0.75800314       1.00573371      -0.15424223      -0.01857296      -0.01184480      -0.12471785
C       -0.00076292      -0.06527102      -0.35431787       0.00001490      -0.01506365      -0.04066502
C        1.47077683      -0.06526073      -0.35432008      -0.00001367      -0.01506286      -0.04066552
C        2.22800304       1.00575459      -0.15424785       0.01857309      -0.01184473      -0.12471926
C        1.39414996       1.26997269       2.55311845       0.00004514       0.02654622       0.15479134
C        0.07584022       1.26999139       2.55312101      -0.00004516       0.02654606       0.15478910
H       -0.33153090       1.99202265      -0.03612512      -0.02739397      -0.00629663      -0.11049167
H       -1.82174141       0.92264277       0.01234606      -0.03610675      -0.03171499      -0.21676462
H       -0.48413290      -1.03301868      -0.38581179       0.01794018      -0.02444654      -0.07064088
H        1.95416034      -1.03300169      -0.38581357      -0.01794103      -0.02444689      -0.07063914
H        3.29174245       0.92267771       0.01233956       0.03611143      -0.03171603      -0.21676722
H        1.80151885       1.99203881      -0.03613452       0.02738871      -0.00629562      -0.11048278
H        1.95026640       0.34326453       2.58433421       0.00355819       0.02951933       0.20456961
H        1.96558493       2.17179909       2.38070501       0.00462000       0.03330057       0.20391832
H       -0.49556969       2.17183379       2.38070833      -0.00461997       0.03330134       0.20391923
H       -0.48030206       0.34329893       2.58434041      -0.00355813       0.02951922       0.20456635
16
Properties=species:S:1:pos:R:3:forces:R:3 energy:=T -17.815412885497=T gnorm:=T 0.000359351609=T xtb:=T 6.7.1=T (edcfbbe)=T rel_kcal=11.61415508030179 energy=-6386.8249047413965 free_energy=-6386.8249047413965 pbc="F F F"
C       -0.74456198       1.00570423      -0.09530435      -0.03795143      -0.00825533      -0.18171786
C        0.00014495      -0.06260437      -0.35567565      -0.00231794      -0.00461189      -0.07265736
C        1.46986681      -0.06259462      -0.35566865       0.00232186      -0.00460782      -0.07265464
C        2.21455919       1.00572970      -0.09532108       0.03795810      -0.00825635      -0.18173069
C        1.39419199       1.26810055       2.47872202      -0.00041746       0.03742689       0.22705754
C        0.07580309       1.26812054       2.47872362       0.00042005       0.03742721       0.22704758
H       -0.31345425       1.99284442      -0.01034914      -0.02830989      -0.01560074      -0.03876295
H       -1.79283173       0.92418318       0.15277985      -0.06901263      -0.04863606      -0.31454764
H       -0.48639983      -1.02895215      -0.39098386       0.03281993      -0.02535112      -0.03520190
H        1.95642456      -1.02893737      -0.39094660      -0.03283632      -0.02534811      -0.03517900
H        3.26282338       0.92422536       0.15279074       0.06904307      -0.04864892      -0.31456817
H        1.78344562       1.99287160      -0.01042156       0.02827813      -0.01557856      -0.03871360
H        1.95122027       0.34303627       2.53142261      -0.00044636       0.03501793       0.23219848
H        1.96813921       2.16482035       2.28940052       0.00054522       0.03000248       0.18362006
H       -0.49811759       2.16485698       2.28940176      -0.00054651       0.03000426       0.18362226
H       -0.48125369       0.34307387       2.53142977       0.00045218       0.03501614       0.23218789
16
Properties=species:S:1:pos:R:3:forces:R:3 energy:=T -17.813369164842=T gnorm:=T 0.000460668107=T xtb:=T 6.7.1=T (edcfbbe)=T rel_kcal=15.320164138976487 energy=-6386.6641969794355 free_energy=-6386.6641969794355 pbc="F F F"
C       -0.73325994       0.99763454      -0.04661727      -0.07822031      -0.00420852      -0.29220142
C        0.00171379      -0.06858761      -0.34872249      -0.01477401       0.01195224      -0.13155674
C        1.46830639      -0.06858021      -0.34867951       0.01478677       0.01196368      -0.13153732
C        2.20325910       0.99768051      -0.04666319       0.07826126      -0.00422193      -0.29221752
C        1.39440514       1.27576773       2.42013495      -0.00391067       0.05644958       0.33998933
C        0.07558702       1.27579631       2.42014395       0.00392050       0.05645532       0.33996855
H       -0.31073201       1.99112413      -0.02007469      -0.00108329      -0.02473414       0.07512237
H       -1.76656144       0.91680151       0.25868801      -0.09493791      -0.06187876      -0.35955904
H       -0.48793036      -1.03235792      -0.40776895       0.04790891      -0.03514982       0.04184420
H        1.95796096      -1.03235549      -0.40758317      -0.04798090      -0.03513328       0.04190106
H        3.23652608       0.91688085       0.25876776       0.09501977      -0.06191708      -0.35962823
H        1.78074699       1.99118175      -0.02034975       0.00099086      -0.02463329       0.07533762
H        1.95310403       0.35402077       2.50220635       0.00557617       0.03821152       0.20159369
H        1.97087093       2.17267157       2.24213737       0.00517431       0.01931776       0.12466933
H       -0.50084209       2.17272362       2.24215216      -0.00518441       0.01932359       0.12469742
H       -0.48315460       0.35407647       2.50222846      -0.00554705       0.03820313       0.20157670
16
Properties=species:S:1:pos:R:3:forces:R:3 energy:=T -17.812259918842=T gnorm:=T 0.000930443810=T xtb:=T 6.7.1=T (edcfbbe)=T rel_kcal=21.253510723067258 energy=-6386.40690272155 free_energy=-6386.40690272155 pbc="F F F"
C       -0.71328059       0.98789475       0.03136063      -0.19443643      -0.05239129      -0.60344293
C        0.00728168      -0.07769530      -0.32245239      -0.08688073       0.04609696      -0.13507688
C        1.46275455      -0.07769501      -0.32236173       0.08692136       0.04611438      -0.13501526
C        2.18327905       0.98797195       0.03128771       0.19460025      -0.05251030      -0.60342809
C        1.39562111       1.28164707       2.32493522      -0.08827711       0.09892999       0.57182845
C        0.07436013       1.28168358       2.32496748       0.08834317       0.09900428       0.57181709
H       -0.31550406       1.98845053      -0.02717701       0.05194025      -0.00743063       0.21540833
H       -1.73961992       0.90780744       0.35598096      -0.09521543      -0.05852644      -0.27065820
H       -0.48845680      -1.03421166      -0.42796868       0.04513006      -0.04983287       0.10948447
H        1.95850570      -1.03424018      -0.42757879      -0.04529340      -0.04981677       0.10951066
H        3.20954509       0.90794966       0.35615579       0.09529878      -0.05859887      -0.27072614
H        1.78556147       1.98852128      -0.02769732      -0.05218041      -0.00712962       0.21600911
H        1.95478073       0.36885925       2.46931864       0.03248869       0.03135018       0.10395540
H        1.97388371       2.18426585       2.19590476       0.02435172      -0.00829493       0.00811784
H       -0.50385280       2.18433349       2.19594542      -0.02439785      -0.00829653       0.00829329
H       -0.48485904       0.36893584       2.46937929      -0.03239292       0.03133246       0.10392286
16
Properties=species:S:1:pos:R:3:forces:R:3 energy:=T -17.820307793211=T gnorm:=T 0.000596792534=T xtb:=T 6.7.1=T (edcfbbe)=T rel_kcal=37.20116359673243 energy=-6385.715347045004 free_energy=-6385.715347045004 pbc="F F F"
C       -0.64989713       0.99445984       0.24478306       0.16542684      -0.04608100       0.47228051
C        0.03903549      -0.09442190      -0.27529080       0.00407162       0.09061905       0.31591348
C        1.43102827      -0.09444760      -0.27515854      -0.00405061       0.09066519       0.31591957
C        2.11986521       0.99458523       0.24471623      -0.16504740      -0.04645556       0.47259423
C        1.42400935       1.26624953       2.09491204      -0.13586726      -0.05524067      -0.62539956
C        0.04592154       1.26625569       2.09499904       0.13615155      -0.05495974      -0.62563424
H       -0.33900553       1.98477705      -0.05053359      -0.00340981       0.05744092       0.11198512
H       -1.71172685       0.89315681       0.43743423       0.15585029       0.03160714       0.06420557
H       -0.48762947      -1.02668952      -0.45546484       0.05072654       0.06569519       0.00688905
H        1.95773628      -1.02678385      -0.45484664      -0.05104368       0.06569520       0.00621028
H        3.18164175       0.89336735       0.43769613      -0.15566313       0.03139435       0.06374183
H        1.80913452       1.98475523      -0.05129546       0.00298434       0.05768023       0.11395216
H        1.95187563       0.38926876       2.44774958      -0.07091904       0.08957197      -0.21213661
H        1.97378040       2.20027377       2.15616624      -0.10894539      -0.23339950      -0.13424636
H       -0.50377346       2.20032894       2.15620082       0.10854301      -0.23377953      -0.13405865
H       -0.48199606       0.38934313       2.44793244       0.07119213       0.08954675      -0.21221637
16
Properties=species:S:1:pos:R:3:forces:R:3 energy:=T -17.854084315501=T gnorm:=T 0.000809990318=T xtb:=T 6.7.1=T (edcfbbe)=T rel_kcal=-32.54206729719671 energy=-6388.739699757434 free_energy=-6388.739699757434 pbc="F F F"
C       -0.58797875       1.12433798       0.40848025       0.02761153      -0.10256871      -0.03152345
C        0.07213943      -0.07477796      -0.21865154      -0.02135637       0.03025919      -0.15798222
C        1.39760455      -0.07463923      -0.21897714       0.02097307       0.03044641      -0.15791541
C        2.05810326       1.12409520       0.40869929      -0.02851112      -0.10183424      -0.03254392
C        1.51968856       1.12985192       1.85234393      -0.09241599       0.13204090       0.21222391
C       -0.04925246       1.13011836       1.85204212       0.09141593       0.13147404       0.21313706
H       -0.25846891       2.05448564      -0.06534164      -0.03180726      -0.18761244      -0.14694703
H       -1.67073380       1.11151925       0.28778224       0.02865215      -0.13391341       0.49872108
H       -0.49463468      -0.96432934      -0.45817393      -0.04826033       0.07903654      -0.25106530
H        1.96423020      -0.96393088      -0.45983856       0.04902901       0.07950696      -0.24808836
H        3.14077808       1.11122278       0.28707611      -0.02916392      -0.13286090       0.50051096
H        1.72811562       2.05489582      -0.06342258       0.03347266      -0.18833128      -0.15403626
H        1.88153108       0.24241564       2.37348801       0.00662446       0.02479262      -0.06507600
H        1.87625864       1.98340366       2.42088474       0.11874104       0.15704083      -0.05761495
H       -0.40612544       1.98332458       2.42091187      -0.11697581       0.15802748      -0.05757775
H       -0.41125498       0.24248568       2.37269728      -0.00802905       0.02449602      -0.06422235
16
Properties=species:S:1:pos:R:3:forces:R:3 energy:=T -17.877429643677=T gnorm:=T 0.000779366901=T xtb:=T 6.7.1=T (edcfbbe)=T rel_kcal=-38.49092680232253 energy=-6388.9976667192395 free_energy=-6388.9976667192395 pbc="F F F"
C       -0.60169368       1.04443242       0.42830960      -0.06480625      -0.04714137       0.00883552
C        0.06651468      -0.14389520      -0.19641928      -0.00633737      -0.06785960      -0.09290093
C        1.39010480      -0.14561381      -0.19579328       0.02395598      -0.06605294      -0.09235817
C        2.05803556       1.04259803       0.42842291       0.06644952      -0.06168396       0.02512017
C        1.50009917       1.21182995       1.84625286       0.01948777       0.07783664       0.02498393
C       -0.04595032       1.21096922       1.84759975      -0.02515812       0.05462097       0.01807381
H       -0.35183403       1.94267464      -0.14375220      -0.15885875      -0.03596261      -0.06347805
H       -1.68199034       0.94725017       0.43032607      -0.10591814       0.02609339       0.10482010
H       -0.50527275      -0.98403630      -0.55954401      -0.08008044      -0.02980119      -0.12483923
H        1.96164066      -0.98580069      -0.55859923       0.07616592      -0.04205585      -0.12848628
H        3.13842751       0.94804464       0.44305134       0.10542082       0.00455360       0.05768187
H        1.81131148       1.93801634      -0.15076143       0.16453241      -0.03948450      -0.01847831
H        1.86783062       0.38809379       2.45896838       0.03160497       0.08231606       0.01440871
H        1.88088912       2.13743569       2.26799058       0.04834109       0.04921360       0.12442817
H       -0.42487995       2.13274264       2.28090826      -0.06573246       0.02743737       0.08422463
H       -0.41201737       0.38080467       2.45093424      -0.02906697       0.06797039       0.05796406
16
Properties=species:S:1:pos:R:3:forces:R:3 energy:=T -17.899836407102=T gnorm:=T 0.000635713530=T xtb:=T 6.7.1=T (edcfbbe)=T rel_kcal=-20006.53549348612 energy=-7254.894026453787 free_energy=-7254.894026453787 pbc="F F F"
C       -0.43189591       1.03747331       0.45443235    1098.87783967   -1774.63176727    3845.65475675
C       -0.24460853      -0.24825712      -0.03086312     117.23131206    -336.41041750     326.52599464
C        0.82809431      -0.55434150       0.36227567    -167.83410035      42.04446041    -118.09658993
C        1.37665105       1.41681787       0.44743648    -468.14828623     163.44598793     285.21996369
C        0.98251061       0.83234657       1.45140954    -224.32133595    -360.40218188     -58.37053295
C       -0.27790824       0.77801816       1.10789969    -693.37714577    1953.44232075   -4883.12593409
H        0.32369491       1.30320641      -0.11710907     258.40214074     226.72811452    1016.49421613
H       -0.84661921       0.56151551       0.33595515     591.07314460     182.35743786     629.54243078
H       -0.59487870      -0.69857794      -1.15980451      98.51162924    -235.24196716    -112.33253934
H        1.54686501      -0.52279324      -1.04845493      -9.77950404      70.50074959      85.08902581
H        2.00835424       0.82648884       1.03893468    -368.41480042      18.49125526     -83.65151663
H        0.91557818       1.01938223      -0.18570633    -396.40820027    -362.46737722     462.47427021
H        1.43282151       0.30770765       1.91509734    -297.60403715     526.40160693    -370.52487463
H        1.48886753       1.60898884       1.50073417     -78.32139904    -188.33461411    -159.64037692
H        0.31164109       1.36960330       2.04672807     717.80413774    -100.04471913    -215.02193541
H       -0.18661973      -0.10475091       1.57062962    -177.69139483     174.12111102    -650.23635811
16
Properties=species:S:1:pos:R:3:forces:R:3 energy:=T -17.914809188377=T gnorm:=T 0.000576727536=T xtb:=T 6.7.1=T (edcfbbe)=T rel_kcal=-36.09751942995354 energy=-6388.893878753213 free_energy=-6388.893878753213 pbc="F F F"
C        1.51763691       0.03281013      -0.00000002       0.00514964      -0.01801921       0.00000000
C        0.66135821       1.25689226      -0.00000002      -0.00617720      -0.01689436       0.00000003
C       -0.66135808       1.25689224       0.00000002       0.00617443      -0.01689398      -0.00000001
C       -1.51763683       0.03281013       0.00000001      -0.00515089      -0.01802001       0.00000001
C       -0.77552826      -1.32045305      -0.00000002       0.00521984       0.00354255       0.00000000
C        0.77552826      -1.32045299       0.00000002      -0.00522102       0.00354080       0.00000001
H        2.18156658       0.08210049       0.86521537       0.00195991       0.00466409      -0.00213867
H        2.18156658       0.08210046      -0.86521541       0.00195986       0.00466413       0.00213863
H        1.18581023       2.20539224      -0.00000004      -0.00944000       0.00050731       0.00000003
H       -1.18581028       2.20539216       0.00000007       0.00944158       0.00050666      -0.00000007
H       -2.18156663       0.08210047       0.86521534      -0.00195868       0.00466430      -0.00213854
H       -2.18156663       0.08210050      -0.86521532      -0.00195868       0.00466431       0.00213856
H       -1.10971331      -1.89082043       0.86426180       0.00276252       0.01076833      -0.00483072
H       -1.10971327      -1.89082039      -0.86426189       0.00276250       0.01076841       0.00483069
H        1.10971323      -1.89082041       0.86426180      -0.00276189       0.01076834      -0.00482898
H        1.10971328      -1.89082048      -0.86426169      -0.00276191       0.01076831       0.00482902
