16
Properties=species:S:1:pos:R:3:forces:R:3 energy:=T -17.820307793211=T gnorm:=T 0.000596792534=T xtb:=T 6.7.1=T (edcfbbe)=T rel_kcal=37.20116359673243 energy=-6385.760270726107 free_energy=-6385.760270726107 pbc="F F F"
C       -0.57957730       1.02376044       0.27502076      -0.01104357       0.00587507       0.05145895
C        0.07761381      -0.08011586      -0.20818824       0.00705460      -0.00216784       0.00210701
C        1.47048305      -0.08564200      -0.26816264       0.00480168       0.00084156      -0.00209302
C        2.18961150       1.00422559       0.17430565      -0.00591400      -0.00146151      -0.00505277
C        1.58927519       1.24000785       2.04191011       0.01844907       0.00646870      -0.00787328
C        0.23278245       1.25011675       2.12251905      -0.07080545      -0.07919900       0.02070206
H       -0.24628496       2.01498760       0.01478987       0.00855824      -0.00070809      -0.00209020
H       -1.61620684       0.95016189       0.56061201      -0.00011886       0.00024197      -0.00449786
H       -0.45364425      -1.01858034      -0.31125131       0.00180308      -0.00137736       0.00124393
H        1.97995628      -1.02760497      -0.43148089       0.00360055       0.00011715       0.00160563
H        3.25245335       0.90266700       0.33858620      -0.00351335      -0.00476170       0.00036805
H        1.86970602       2.00143699      -0.08664356      -0.00148663      -0.00022426       0.00587545
H        2.12673157       0.34940170       2.32387881       0.00152777       0.00075289       0.00028978
H        2.15103617       2.15982955       2.07774095       0.00579420      -0.00190920       0.00126818
H       -0.32302946       2.17148417       2.16734361      -0.00222295       0.00138688      -0.00773405
H       -0.29797923       0.35836966       2.40918414       0.04351561       0.07612473      -0.05557786
