16
Properties=species:S:1:pos:R:3:forces:R:3 energy:=T -17.820307793211=T gnorm:=T 0.000596792534=T xtb:=T 6.7.1=T (edcfbbe)=T rel_kcal=37.20116359673243 energy=-6385.715347045004 free_energy=-6385.715347045004 pbc="F F F"
C       -0.64989713       0.99445984       0.24478306       0.16542684      -0.04608100       0.47228051
C        0.03903549      -0.09442190      -0.27529080       0.00407162       0.09061905       0.31591348
C        1.43102827      -0.09444760      -0.27515854      -0.00405061       0.09066519       0.31591957
C        2.11986521       0.99458523       0.24471623      -0.16504740      -0.04645556       0.47259423
C        1.42400935       1.26624953       2.09491204      -0.13586726      -0.05524067      -0.62539956
C        0.04592154       1.26625569       2.09499904       0.13615155      -0.05495974      -0.62563424
H       -0.33900553       1.98477705      -0.05053359      -0.00340981       0.05744092       0.11198512
H       -1.71172685       0.89315681       0.43743423       0.15585029       0.03160714       0.06420557
H       -0.48762947      -1.02668952      -0.45546484       0.05072654       0.06569519       0.00688905
H        1.95773628      -1.02678385      -0.45484664      -0.05104368       0.06569520       0.00621028
H        3.18164175       0.89336735       0.43769613      -0.15566313       0.03139435       0.06374183
H        1.80913452       1.98475523      -0.05129546       0.00298434       0.05768023       0.11395216
H        1.95187563       0.38926876       2.44774958      -0.07091904       0.08957197      -0.21213661
H        1.97378040       2.20027377       2.15616624      -0.10894539      -0.23339950      -0.13424636
H       -0.50377346       2.20032894       2.15620082       0.10854301      -0.23377953      -0.13405865
H       -0.48199606       0.38934313       2.44793244       0.07119213       0.08954675      -0.21221637
