150
(H2O)50 vacuum blob start, 150 atoms, spacing=3.4 A seed=0
O       -3.67200000      -4.89600000      -4.96400000
H       -4.14639278      -4.91759966      -5.79647553
H       -2.85310138      -4.44138226      -5.16712143
O       -3.67200000      -4.89600000      -1.56400000
H       -4.35830685      -4.35761633      -1.16694019
H       -3.26300869      -4.32163482      -2.21312350
O       -3.67200000      -4.89600000       1.83600000
H       -2.96977127      -4.86582676       1.18446723
H       -4.00940379      -5.79145791       1.78266739
O       -3.67200000      -4.89600000       5.23600000
H       -2.85809104      -4.43639118       5.02423951
H       -3.53408472      -5.22993091       6.12369369
O       -3.67200000      -1.49600000      -4.96400000
H       -4.45970960      -1.95298098      -4.66531534
H       -3.67123391      -0.67383906      -4.47147451
O       -3.67200000      -1.49600000      -1.56400000
H       -2.99333612      -2.11398287      -1.83975907
H       -3.80827373      -0.93379187      -2.32812175
O       -3.67200000      -1.49600000       1.83600000
H       -4.26808983      -1.79349672       2.52498706
H       -3.87543981      -0.56556515       1.72907107
O       -3.67200000      -1.49600000       5.23600000
H       -3.76385894      -1.36387400       4.29120626
H       -2.84054869      -1.07356539       5.45683541
O       -3.67200000       1.90400000      -4.96400000
H       -3.06868787       2.47689074      -4.48824666
H       -3.51835341       2.10903693      -5.88751673
O       -3.67200000       1.90400000      -1.56400000
H       -4.47696810       1.79511953      -1.05537248
H       -3.37118275       2.78826625      -1.34926121
O       -3.67200000       1.90400000       1.83600000
H       -3.59235367       2.70879307       2.35029091
H       -3.94241087       2.20184616       0.96611714
O       -3.67200000       1.90400000       5.23600000
H       -4.43191011       2.48169959       5.15038237
H       -3.00001924       2.45173066       5.64461173
O       -3.67200000       5.30400000      -4.96400000
H       -3.45008504       4.40881977      -5.22464663
H       -4.23210972       5.19691154      -4.19371452
O       -3.67200000       5.30400000      -1.56400000
H       -4.00039997       4.46804448      -1.89845834
H       -3.06651609       5.61099187      -2.24051740
O       -3.67200000       5.30400000       1.83600000
H       -4.47914279       4.86123838       1.56951694
H       -3.77225754       6.20003046       1.51102554
O       -3.67200000       5.30400000       5.23600000
H       -3.98407645       4.39988317       5.17507697
H       -3.44695002       5.54054983       4.33492994
O       -0.27200000      -4.89600000      -4.96400000
H       -0.92198343      -4.31023127      -5.35505894
H        0.47322811      -4.32729019      -4.76466416
O       -0.27200000      -4.89600000      -1.56400000
H        0.05903504      -4.51833643      -2.38028218
H       -1.20728619      -4.68679349      -1.56571175
O       -0.27200000      -4.89600000       1.83600000
H       -0.22195055      -5.79645712       1.51165053
H        0.64054221      -4.64529972       1.98748148
O       -0.27200000      -4.89600000       5.23600000
H       -0.25041338      -5.10182908       6.17178789
H        0.51796551      -4.37400400       5.08765838
O       -0.27200000      -1.49600000      -4.96400000
H       -0.24465563      -1.11487939      -4.08506318
H        0.52304405      -1.17201766      -5.38999408
O       -0.27200000      -1.49600000      -1.56400000
H       -0.24759521      -1.52611775      -0.60638427
H       -0.25368361      -0.56116295      -1.77441570
O       -0.27200000      -1.49600000       1.83600000
H        0.40139266      -1.75839546       2.46546129
H        0.18335158      -0.91096074       1.22861662
O       -0.27200000      -1.49600000       5.23600000
H       -0.98334333      -2.04918685       4.90964813
H       -0.65815180      -1.01963080       5.97253902
O       -0.27200000       1.90400000      -4.96400000
H       -0.72248916       2.67017445      -4.60543788
H        0.52215312       2.25973948      -5.36562271
O       -0.27200000       1.90400000      -1.56400000
H       -0.81348444       1.30672592      -2.08225557
H       -0.84548095       2.18894059      -0.85093687
O       -0.27200000       1.90400000       1.83600000
H       -0.43057136       2.81344351       1.57851565
H       -1.12357440       1.47552221       1.73721546
O       -0.27200000       1.90400000       5.23600000
H        0.67531143       1.94591050       5.37519458
H       -0.64897871       2.20227409       6.06512615
O       -0.27200000       5.30400000      -4.96400000
H       -1.18458173       5.03160612      -5.07136260
H        0.20259991       4.48873735      -4.79478919
O       -0.27200000       5.30400000      -1.56400000
H        0.32659800       6.03605325      -1.40808646
H        0.16980790       4.54704879      -1.17623563
O       -0.27200000       5.30400000       1.83600000
H       -0.82946128       4.55920942       1.60566444
H       -0.51126722       5.51105465       2.74066023
O       -0.27200000       5.30400000       5.23600000
H       -0.69013440       5.69346450       4.46657711
H        0.14026756       4.50454562       4.90518479
O        3.12800000      -4.89600000      -4.96400000
H        3.34080057      -4.74663377      -5.88646204
H        3.20746985      -5.84436219      -4.85075576
O        3.12800000      -4.89600000      -1.56400000
H        3.87442935      -4.90804282      -0.96297691
H        3.46951853      -5.27135314      -2.37702255
O        3.12800000      -4.89600000       1.83600000
H        2.63488533      -5.55193087       2.33109916
H        3.19101712      -5.26110222       0.95211099
O        3.12800000      -4.89600000       5.23600000
H        3.72623957      -4.14821570       5.27419183
H        3.69848471      -5.65120859       5.08520963
O        3.12800000      -1.49600000      -4.96400000
H        2.28816979      -1.14378672      -5.26259939
H        3.62198435      -1.65240983      -5.77025429
O        3.12800000      -1.49600000      -1.56400000
H        4.01243325      -1.27697176      -1.86121207
H        2.64121651      -0.67350517      -1.63523650
O        3.12800000      -1.49600000       1.83600000
H        3.12013101      -1.04706779       2.68271631
H        3.70159751      -2.25177622       1.97134682
O        3.12800000      -1.49600000       5.23600000
H        2.37515622      -1.15514082       5.72135741
H        3.84780081      -0.90662841       5.46634425
O        3.12800000       1.90400000      -4.96400000
H        2.80070977       2.45831741      -4.25396910
H        2.76747749       2.29739216      -5.76011349
O        3.12800000       1.90400000      -1.56400000
H        3.32583722       1.15337822      -1.00189865
H        3.02858775       2.63831106      -0.95618833
O        3.12800000       1.90400000       1.83600000
H        3.96793342       1.87997575       1.37506048
H        3.18883460       1.19767079       2.48092539
O        3.12800000       1.90400000       5.23600000
H        3.87749556       1.63125831       4.70458779
H        3.24078153       1.43771781       6.06569380
O        3.12800000       5.30400000      -4.96400000
H        3.50146194       5.28199078      -5.84636746
H        3.62442417       5.98740414      -4.51117289
O        3.12800000       5.30400000      -1.56400000
H        3.54111511       4.46195909      -1.76106238
H        2.84179241       5.63530865      -2.41655519
O        3.12800000       5.30400000       1.83600000
H        3.05464800       4.61429177       2.49740199
H        4.03594337       5.60356949       1.90253964
O        3.12800000       5.30400000       5.23600000
H        2.44822037       5.96886448       5.35593933
H        3.78243740       5.72878637       4.67940429
O        6.52800000      -4.89600000      -4.96400000
H        6.10711221      -4.32946660      -4.31559894
H        6.71734692      -5.70555665      -4.48724395
O        6.52800000      -4.89600000      -1.56400000
H        7.07002380      -5.65030209      -1.80015487
H        6.22746135      -5.08668950      -0.67414350
