16
Properties=species:S:1:pos:R:3 energy:=T -17.812259918842=T gnorm:=T 0.000930443810=T xtb:=T 6.7.1=T (edcfbbe)=T pbc="F F F"
C       -0.73752901       1.12728571      -0.38011820
C        0.01073070       0.04126315      -0.22863252
C        1.45926301       0.04127475      -0.22865262
C        2.20750181       1.12730907      -0.38015304
C        1.39965180       1.05834129       2.71804458
C        0.07037994       1.05832888       2.71806531
H       -0.31501590       2.10215838      -0.54670415
H       -1.81198348       1.06231887      -0.34459350
H       -0.48776076      -0.90466456      -0.08378850
H        1.95777169      -0.90464574      -0.08382686
H        3.28195790       1.06235892      -0.34466040
H        1.78496934       2.10217678      -0.54671956
H        1.95072697       0.18641909       3.02854805
H        1.95750463       1.93409063       2.43728320
H       -0.48749989       1.93406678       2.43732107
H       -0.48066872       0.18639653       3.02858717
