16
Properties=species:S:1:pos:R:3 energy:=T -17.812259918842=T gnorm:=T 0.000930443810=T xtb:=T 6.7.1=T (edcfbbe)=T pbc="F F F"
C       -0.74229983       1.12954586      -0.38760423
C        0.00296903       0.04078215      -0.24162932
C        1.45150168       0.04175561      -0.21565552
C        2.20273122       1.12504880      -0.37266717
C        1.41164561       1.06953811       2.73326184
C        0.08237350       1.04713230       2.70284786
H       -0.31757421       2.10676736      -0.53513062
H       -1.81717832       1.06458722      -0.36621310
H       -0.49777837      -0.90643013      -0.11365651
H        1.94775489      -0.90288029      -0.05395764
H        3.27676370       1.06009042      -0.32304048
H        1.78241079       2.09756774      -0.55829416
H        1.97081236       0.20633661       3.05395424
H        1.96160660       1.95395032       2.46321022
H       -0.48339834       1.91420712       2.41139395
H       -0.46058378       0.16647953       3.00318093
