16
Properties=species:S:1:pos:R:3 energy:=T -17.812259918842=T gnorm:=T 0.000930443810=T xtb:=T 6.7.1=T (edcfbbe)=T pbc="F F F"
C       -0.73991442       1.12841578      -0.38386122
C        0.00684986       0.04102265      -0.23513092
C        1.45538235       0.04151518      -0.22215407
C        2.20511652       1.12617893      -0.37641010
C        1.40564870       1.06393970       2.72565321
C        0.07637672       1.05273059       2.71045659
H       -0.31629506       2.10446287      -0.54091738
H       -1.81458090       1.06345305      -0.35540330
H       -0.49276956      -0.90554734      -0.09872251
H        1.95276329      -0.90376301      -0.06889225
H        3.27936080       1.06122467      -0.33385044
H        1.78369006       2.09987226      -0.55250686
H        1.96076966       0.19637785       3.04125115
H        1.95955561       1.94402047       2.45024671
H       -0.48544912       1.92413695       2.42435751
H       -0.47062625       0.17643803       3.01588405
