16
Properties=species:S:1:pos:R:3 energy:=T -17.812259918842=T gnorm:=T 0.000930443810=T xtb:=T 6.7.1=T (edcfbbe)=T pbc="F F F"
C       -0.73514360       1.12615563      -0.37637519
C        0.01461153       0.04150365      -0.22213413
C        1.46314367       0.04103432      -0.23515118
C        2.20988710       1.12843921      -0.38389597
C        1.39365489       1.05274289       2.71043594
C        0.06438317       1.06392717       2.72567404
H       -0.31373675       2.09985389      -0.55249092
H       -1.80938607       1.06118469      -0.33378370
H       -0.48275196      -0.90378177      -0.06885450
H        1.96278008      -0.90552847      -0.09876146
H        3.28455500       1.06349317      -0.35547036
H        1.78624861       2.10448130      -0.54093227
H        1.94068427       0.17646032       3.01584495
H        1.95545365       1.92416079       2.42431969
H       -0.48955067       1.94399661       2.45028464
H       -0.49071120       0.19635503       3.04129029
