16
Properties=species:S:1:pos:R:3 energy:=T -17.812259918842=T gnorm:=T 0.000930443810=T xtb:=T 6.7.1=T (edcfbbe)=T pbc="F F F"
C       -0.73275819       1.12502555      -0.37263218
C        0.01849237       0.04174415      -0.21563573
C        1.46702434       0.04079389      -0.24164973
C        2.21227240       1.12956934      -0.38763891
C        1.38765798       1.04714448       2.70282731
C        0.05838639       1.06952546       2.73328277
H       -0.31245760       2.09754940      -0.55827769
H       -1.80678865       1.06005052      -0.32297390
H       -0.47774315      -0.90289899      -0.05392050
H        1.96778848      -0.90641119      -0.11369607
H        3.28715210       1.06462743      -0.36628032
H        1.78752788       2.10678582      -0.53514497
H        1.93064158       0.16650156       3.00314185
H        1.95340266       1.91423095       2.41135618
H       -0.49160144       1.95392644       2.46324820
H       -0.50075367       0.20631353       3.05399341
