16
Properties=species:S:1:pos:R:3 energy:=T -17.812259918842=T gnorm:=T 0.000930443810=T xtb:=T 6.7.1=T (edcfbbe)=T pbc="F F F"
C       -0.76816470       1.16617560      -0.33686302
C        0.03341261       0.01132383      -0.23042400
C        1.48663742       0.03871907      -0.24510946
C        2.22736839       1.13740653      -0.37321727
C        1.43938188       1.03167820       2.76544658
C        0.06756963       1.06412266       2.70140228
H       -0.34851190       2.08724681      -0.59067404
H       -1.79125912       1.07619197      -0.34380193
H       -0.48840010      -0.88670321      -0.09895368
H        1.96633876      -0.93709763      -0.11291479
H        3.28893669       1.07682564      -0.33195773
H        1.77607680       2.08411775      -0.58264908
H        1.92978926       0.19146185       3.01004440
H        1.91655705       1.91472239       2.46262529
H       -0.49284546       1.95362948       2.43443105
H       -0.48791221       0.16589961       3.07167816
