16
Properties=species:S:1:pos:R:3 energy:=T -17.812259918842=T gnorm:=T 0.000930443810=T xtb:=T 6.7.1=T (edcfbbe)=T pbc="F F F"
C       -0.73198151       1.14547932      -0.37004543
C        0.00937882       0.01158470      -0.20598371
C        1.46391445       0.06762062      -0.16434848
C        2.19823369       1.12382813      -0.42415144
C        1.43684718       1.08125233       2.70443391
C        0.10015659       1.10212653       2.73001476
H       -0.30201434       2.10042331      -0.56960415
H       -1.81605469       1.04666436      -0.36712262
H       -0.47236420      -0.92451591      -0.04912785
H        1.96360197      -0.89210871      -0.14511715
H        3.31594016       1.06767016      -0.32910196
H        1.74945744       2.09041230      -0.60668434
H        1.96732079       0.21610907       3.00523017
H        1.92746665       1.96961242       2.42484328
H       -0.47077121       1.95825955       2.42199181
H       -0.50646615       0.17361263       3.03154925
