16
Properties=species:S:1:pos:R:3:forces:R:3 energy:=T -17.812259918842=T gnorm:=T 0.000930443810=T xtb:=T 6.7.1=T (edcfbbe)=T energy=-6381.149280638937 free_energy=-6381.149280638937 pbc="F F F"
C       -0.73752901       1.12728571      -0.38011820      -0.00000219      -0.00003988       0.00000917
C        0.01073070       0.04126315      -0.22863252      -0.00000797       0.00002471       0.00000247
C        1.45926301       0.04127475      -0.22865262      -0.00001645       0.00000075      -0.00001318
C        2.20750181       1.12730907      -0.38015304      -0.00000019      -0.00000439       0.00000075
C        1.39965180       1.05834129       2.71804458      -0.00000572       0.00000681      -0.00001389
C        0.07037994       1.05832888       2.71806531      -0.00000496       0.00000598       0.00000528
H       -0.31501590       2.10215838      -0.54670415       0.00000429       0.00001414       0.00000524
H       -1.81198348       1.06231887      -0.34459350       0.00000647       0.00000453      -0.00000945
H       -0.48776076      -0.90466456      -0.08378850       0.00000549       0.00000320       0.00000251
H        1.95777169      -0.90464574      -0.08382686       0.00001276      -0.00001707       0.00000445
H        3.28195790       1.06235892      -0.34466040       0.00000568      -0.00000035      -0.00000054
H        1.78496934       2.10217678      -0.54671956      -0.00000449       0.00001233       0.00000013
H        1.95072697       0.18641909       3.02854805      -0.00000135      -0.00000347       0.00000607
H        1.95750463       1.93409063       2.43728320       0.00000422       0.00000018      -0.00000079
H       -0.48749989       1.93406678       2.43732107       0.00000673      -0.00000016       0.00000140
H       -0.48066872       0.18639653       3.02858717      -0.00000230      -0.00000732       0.00000037
