150
 energy: -254.440943927424 gnorm: 0.000855377848 xtb: 6.7.1 (edcfbbe)
O           -3.00111281545816       -3.68494549475285       -4.23647431239810
H           -3.35209762538664       -4.27622845867218       -3.56303104547395
H           -2.06093675289432       -3.90013175537664       -4.32735246297086
O           -3.73987635049741       -4.14580828409431       -1.38927084579529
H           -3.80673248318882       -4.31963073009856       -0.43642950529637
H           -4.11086762978053       -3.26908536018442       -1.53806433600304
O           -3.31740162553809       -4.25177551396987        1.36870358958207
H           -2.34079290143303       -4.22400864395504        1.28745901801550
H           -3.45496191966794       -4.32121316324937        2.33172231234034
O           -2.93060344074559       -3.86677640006583        4.01903114333564
H           -1.98357054999658       -4.04701642266490        4.09649388974909
H           -3.02649982393840       -2.90467682558154        4.02883665342726
O           -3.74030532905348       -1.44461817697783       -2.92154382914370
H           -3.49346595505583       -2.15033551071187       -3.55482562794602
H           -3.68887771106501       -0.59668335484374       -3.38026869466385
O           -1.87877791013762       -1.36249656823418       -1.06599023443947
H           -1.38480574516145       -2.19788863078178       -1.19090142431381
H           -2.58079554985136       -1.39339631094967       -1.75828355008059
O           -3.44890677546510       -1.57262427318575        1.11934981156989
H           -3.56999516871549       -2.53949987424346        1.20983811874460
H           -2.80462438906555       -1.46559729880490        0.39292345929241
O           -2.87022755567395       -1.03362807363016        3.61203234284537
H           -3.07141687659573       -1.16833151119252        2.64878979853669
H           -3.11022327924975       -0.12100831290619        3.81062629324811
O           -2.97696447506413        1.32255961979880       -3.31484733871246
H           -2.95066373889781        1.28882160674337       -2.33702264233952
H           -2.05531372498391        1.17305307410750       -3.58795665478935
O           -2.47049815502919        1.19789249609870       -0.65585022368442
H           -2.25263434190680        0.24761974751974       -0.68602399352808
H           -3.04871371390759        1.32148307005116        0.10944031642994
O           -3.59118107466056        1.95008682300494        1.73394877373573
H           -3.72962677809423        1.82150502594646        2.67985181720293
H           -3.61021706970233        2.91079245435348        1.56810149599628
O           -3.07204833180937        1.71978915725040        4.46347840408048
H           -3.50249392648014        1.66919230432116        5.31748903385236
H           -2.09611394142056        1.55690953677177        4.64049592918403
O           -2.73794355792395        3.96336120991077       -3.42809906515822
H           -2.88358577139220        2.98318765043880       -3.42672796199533
H           -3.44967075981468        4.34516392739795       -3.94059972195818
O           -2.00853079208248        4.96390288310112       -0.94010883033411
H           -2.35502277234222        4.61955154741868       -1.78136117528895
H           -1.04771410844327        4.84822633404600       -0.99838424078998
O           -3.37508429192381        4.61406929883237        1.26955570730263
H           -4.14552266616087        5.16860343196245        1.14536267377044
H           -2.83744808163311        4.71131932266160        0.44277458023915
O           -2.59624454974915        4.41655528566277        3.94141165317986
H           -2.82788943162751        3.48914972686854        4.12274506051763
H           -2.83649140776093        4.58244314520286        3.01738352835742
O           -0.21821346193884       -4.04807090020438       -4.04027222665178
H           -0.11880538948941       -3.08149206003548       -3.95245049753451
H            0.67764830227093       -4.37347644571679       -4.20192266007450
O           -1.05923149335880       -3.86726040274290       -1.49575535799319
H           -0.66354986436708       -4.09897613154938       -2.35775525448649
H           -2.00208558024431       -4.12715046447286       -1.53519383405779
O           -0.68399805437499       -3.66071557278008        1.11732945433424
H           -0.69442105232827       -3.82327947087125        0.15501366012038
H           -0.72859589758917       -2.69516685872975        1.24164326877821
O           -0.08871759870375       -4.12392098944062        4.55872325420093
H           -0.00698543367508       -4.70817925127420        5.31234048404223
H            0.81308938637788       -4.08027578761801        4.14774496650562
O            0.15367006681583       -1.48228666867425       -3.31597555635062
H            0.37578331841197       -1.52526726223913       -2.36378637790062
H           -0.18839708243404       -0.57647938460238       -3.46171091974570
O            1.03936505580537       -1.00566127538004       -0.82300892447566
H            0.75579420080374       -1.24527694550269        0.07672945404145
H            0.77269842799295       -0.07943564192000       -0.92389536764744
O           -0.09898673717751       -1.06702106763648        1.63980568249177
H            0.04741868312903       -1.27977967635566        2.57479648772772
H           -0.41799455361365       -0.14599119686038        1.65167878299630
O           -0.38111157845081       -1.46235328068962        4.36532302953157
H           -0.32042864257053       -2.41712664999894        4.55744824841823
H           -1.31406405067256       -1.31658649124941        4.07499532433545
O           -0.27376292767582        1.13918623300355       -3.49679582087093
H           -0.15199821250931        1.40124205048424       -2.57040442349758
H            0.58801748188166        1.33322888030694       -3.92432281254073
O            0.12149318339885        1.68911872335537       -0.82738002590161
H           -0.83184159255507        1.61472511194758       -0.59814722331751
H            0.62547675546284        1.62159143053840        0.00612351509544
O           -0.88956305392336        1.47976324766813        1.89947476094846
H           -0.50205570931128        2.36098384126632        1.77225923476681
H           -1.85372318389063        1.58673800594747        1.85916655245861
O           -0.59743772761562        1.23202041321302        5.06928409697197
H            0.13673470664456        1.47694721205678        4.46602934902182
H           -0.54054584285343        0.26708664409185        5.11168206649561
O           -0.05200457306451        4.71738686262805       -3.84928342187782
H           -0.96055535914616        4.39588106352172       -3.93393504928870
H            0.13935509950784        4.67304470402017       -2.89092719991230
O            0.62035550385925        4.28947379398380       -1.26428727998591
H            1.58659942610340        4.35796719206319       -1.40933885104775
H            0.44530969156254        3.33409606303943       -1.12932915540046
O            0.16441902656246        3.98265079692180        1.57661748570561
H           -0.39988185604599        4.62755315777220        1.14600912807649
H            0.17268900237026        4.19246973650237        2.54257412953209
O            0.04601713685435        4.41893673896667        4.18336106859682
H           -0.92979279826037        4.55512483982829        4.20554277898020
H            0.20418837361672        3.62603909158413        4.70530333232118
O            2.57218199429796       -4.04362608447520       -4.13008786786562
H            2.61618219043599       -3.10324585684064       -4.35219107420093
H            3.49867054402152       -4.34099520051513       -4.15237878451524
O            2.67330268403741       -4.38221185230774       -1.37410472588220
H            3.62978017891961       -4.23666840829470       -1.33758736482818
H            2.43625197589360       -4.29815110677709       -2.31254929700343
O            2.00219185045053       -3.29818392589737        0.98982081965247
H            1.05716833357497       -3.51052789930303        1.11738632610184
H            2.24325803470380       -3.72744923972055        0.14625811637961
O            2.36975216104995       -3.72730391040549        3.64644880575332
H            2.61816831463983       -2.84805397568038        3.95455836816366
H            2.36397151997142       -3.67696094276282        2.67088793173861
O            2.60457409489959       -1.23299478525624       -4.28173255703551
H            1.66334996182691       -1.34243034895654       -4.00071899385382
H            2.67341719542486       -0.30575314563089       -4.54696447120726
O            3.56827558029629       -1.20302339760489       -1.78746851701385
H            3.32402637134674       -1.29824007401739       -2.73588840873527
H            2.73005142263359       -1.32701569771197       -1.29810566301523
O            3.16019958333054       -0.91005240427896        1.57883635229111
H            2.98672707016600       -0.92886439951181        2.53837990509344
H            2.74053048015138       -1.72237790254343        1.23615681266433
O            2.31373742157088       -0.84885661550909        4.17576558835217
H            1.39218664468007       -1.11365131351762        4.32052374696835
H            2.27690670764959        0.12406492797922        4.17380931998121
O            2.27951899998958        1.52636829042890       -4.14704174962090
H            2.59904372827752        1.49906986579328       -3.22079702875110
H            2.43103239223089        2.43761653003156       -4.44294290289731
O            3.17689930162667        1.42110407380954       -1.59202644341542
H            3.56221678661348        0.52086694221069       -1.64340024631620
H            2.65744947863987        1.41027719108668       -0.76745907906183
O            2.07597473398804        1.35656320889469        0.94509721947729
H            2.67633140307105        2.10048110579314        1.11228424838658
H            2.53566414843473        0.49550580000671        1.16199421558756
O            1.60535428133062        1.72535923678707        3.65353265276421
H            1.50470270708290        1.59692440076176        2.69457923932810
H            2.15186960362721        2.53177786340846        3.77538987670474
O            2.46180522491418        4.23167387578958       -4.51412274394999
H            1.50269327981541        4.40646896156209       -4.35574181002330
H            2.72279319956031        4.80272260979000       -5.23588872406222
O            3.24297600837371        4.13677606353952       -1.83130919678632
H            3.41007997654024        3.17970803512722       -1.76172557596588
H            3.15561863315404        4.31118067585868       -2.78206708289940
O            2.85737082224938        3.96201393352740        1.02068983385362
H            1.88526463185927        4.06111280449416        1.03052273519219
H            3.16530283514224        4.26868182422937        0.16106746817006
O            2.89934794011592        4.05832091184660        3.76697767735360
H            2.16449101181596        4.64530052062184        3.97230853193837
H            3.09004895255608        4.16551868771274        2.82116801166313
O            5.29510221767799       -4.14730095583277       -3.86019406549344
H            5.38644799690043       -3.93598724664199       -2.91726298442864
H            5.72237181853238       -3.43437770006594       -4.33777566067976
O            5.20996737989364       -3.22307960326764       -1.24625151932879
H            5.54491907268667       -3.15905272559317       -0.35161293206089
H            4.66171360191005       -2.41606178059975       -1.39592007647178
