16
Properties=species:S:1:pos:R:3 energy:=T -17.813369164842=T gnorm:=T 0.000460668107=T xtb:=T 6.7.1=T (edcfbbe)=T pbc="F F F"
C       -0.66008951       0.95118285       0.01127368
C        0.02013531      -0.14641448      -0.35488918
C        1.41195042      -0.06558198      -0.27115232
C        2.08089931       1.02693152       0.02301823
C        1.38652347       1.20684703       2.36618620
C        0.15072451       1.20697047       2.29938980
H       -0.41081018       1.98712711       0.02484963
H       -1.79703396       0.96078756       0.11731249
H       -0.45978858      -0.98994567      -0.33892332
H        1.82258724      -1.03858365      -0.54305479
H        3.25821485       0.91186612       0.09173999
H        1.87560762       2.03121509       0.05135842
H        1.99681447       0.42770552       2.48206378
H        1.95238474       2.14689703       2.44512035
H       -0.52145917       2.15366409       2.38544364
H       -0.44137070       0.30672539       2.59328771
