16
Properties=species:S:1:pos:R:3 energy:=T -17.813738202088=T gnorm:=T 0.000438383854=T xtb:=T 6.7.1=T (edcfbbe)=T pbc="F F F"
C       -0.69036748       1.03559934       0.12512989
C        0.03248649      -0.09898494      -0.22833109
C        1.43206709      -0.07252370      -0.36616927
C        2.10548530       0.98312274       0.16245601
C        1.29245545       1.27786203       2.21742785
C       -0.00022763       1.15984835       2.24568543
H       -0.29429982       1.87429313      -0.09801747
H       -1.82007030       0.94597699       0.18711955
H       -0.43374674      -1.05491264      -0.41805020
H        2.03389234      -1.03401037      -0.43459430
H        3.22857905       0.85472544       0.11553214
H        1.78169338       1.97707554      -0.15363159
H        2.02701667       0.38384857       2.50498809
H        1.92280461       2.13270955       2.24947131
H       -0.42762966       2.04051886       2.31210275
H       -0.48582762       0.24820160       2.53366611
