16
Properties=species:S:1:pos:R:3 energy:=T -17.820713068479=T gnorm:=T 0.000405323679=T xtb:=T 6.7.1=T (edcfbbe)=T pbc="F F F"
C       -0.76985511       0.94720144      -0.13611301
C        0.03330566      -0.05412114      -0.33887505
C        1.46261080      -0.08550960      -0.32053359
C        2.22674083       1.04915778      -0.04296969
C        1.47852552       1.28798630       2.51019306
C        0.05845873       1.23997384       2.59364190
H       -0.50843026       2.01785760      -0.18932333
H       -1.83535812       0.99981849      -0.16385780
H       -0.57585516      -0.96740051      -0.31074439
H        1.94999464      -0.96963664      -0.43478163
H        3.36817231       1.02006169      -0.08049803
H        1.84491555       2.07298287      -0.02143058
H        1.92406507       0.41949933       2.67539341
H        1.97522078       2.23494770       2.51525625
H       -0.45659603       2.13762706       2.51032541
H       -0.55392001       0.33964890       2.54438956
