16
Properties=species:S:1:pos:R:3 energy:=T -17.815412885497=T gnorm:=T 0.000359351609=T xtb:=T 6.7.1=T (edcfbbe)=T pbc="F F F"
C       -0.79292830       1.03971683      -0.02640539
C        0.02909504       0.01918903      -0.30243476
C        1.50038810      -0.19929181      -0.21505842
C        2.21102150       0.99765639      -0.04368041
C        1.49222586       1.20908751       2.44800267
C        0.03737196       1.24515494       2.38878353
H       -0.19749450       2.02518779       0.00245360
H       -1.80811216       0.92033507       0.02552648
H       -0.34218729      -0.93231272      -0.42234872
H        1.94175072      -1.10430242      -0.31635493
H        3.31989260       0.94758762       0.01273857
H        1.85030890       2.04960736      -0.02413802
H        2.01242620       0.25180658       2.48157668
H        1.90629452       2.16491044       2.44737398
H       -0.49306881       2.23144149       2.33682941
H       -0.51906319       0.40498567       2.55564130
