16
Properties=species:S:1:pos:R:3 energy:=T -17.822313566467=T gnorm:=T 0.000397917922=T xtb:=T 6.7.1=T (edcfbbe)=T pbc="F F F"
C       -0.79191676       0.96465881      -0.21854569
C       -0.08117389      -0.13667439      -0.30245707
C        1.44140919      -0.09284497      -0.31476089
C        2.20316176       0.96347706      -0.25675513
C        1.43222120       1.26283093       2.57078835
C        0.05689986       1.30043073       2.76659442
H       -0.44504612       2.02599450      -0.18209945
H       -1.79108626       0.95240801      -0.12465131
H       -0.41703352      -1.07671827      -0.44204627
H        1.94614014      -1.01666417      -0.25445810
H        3.42089501       0.84875558      -0.19631074
H        1.75705729       1.89862704      -0.11810154
H        1.99949693       0.28310005       2.83664418
H        1.90358897       2.09457238       2.61725553
H       -0.48191179       2.15893641       2.57129993
H       -0.47999299       0.34055084       2.72064742
