16
Properties=species:S:1:pos:R:3 energy:=T -17.812259918842=T gnorm:=T 0.000930443810=T xtb:=T 6.7.1=T (edcfbbe)=T pbc="F F F"
C       -0.63729018       1.00184750       0.13264732
C        0.07568925      -0.13327323      -0.26404584
C        1.47164766      -0.06693495      -0.39457939
C        2.18752843       0.99954175       0.14708214
C        1.34464027       1.28710461       2.26664084
C        0.21406227       1.16624588       2.31637896
H       -0.34682013       1.95838222       0.04207514
H       -1.73490160       1.00943974       0.08473539
H       -0.53850772      -0.98627216      -0.43803260
H        2.01494237      -0.92058289      -0.39417086
H        3.24276651       0.94789422       0.16521679
H        1.78148081       2.00242143       0.00328962
H        1.94016971       0.30023385       2.46700417
H        1.92797305       2.14439605       2.32531956
H       -0.37027822       2.05042091       2.20889802
H       -0.49460141       0.33383405       2.48250460
