16
Properties=species:S:1:pos:R:3 energy:=T -17.822313566467=T gnorm:=T 0.000397917922=T xtb:=T 6.7.1=T (edcfbbe)=T pbc="F F F"
C       -0.72617096       1.08936294      -0.16056944
C        0.05258840      -0.06395332      -0.35383047
C        1.49382088      -0.04286946      -0.32206558
C        2.22353431       1.09966430      -0.29153443
C        1.39248610       1.22714081       2.70378214
C        0.15483332       1.32736340       2.68859595
H       -0.44912371       2.11869236      -0.13719014
H       -1.84977350       0.92487407      -0.23733511
H       -0.42692939      -1.02486217      -0.42742426
H        1.77907255      -1.04382006      -0.38143194
H        3.34272286       0.91528717      -0.19378062
H        1.89855840       1.97855135      -0.08505265
H        1.85685821       0.28016869       2.68193566
H        1.83175660       2.11424341       2.64414279
H       -0.42782722       2.17453660       2.67011785
H       -0.48113295       0.32212173       2.74493874
