16
Properties=species:S:1:pos:R:3 energy:=T -17.817532948576=T gnorm:=T 0.000396279826=T xtb:=T 6.7.1=T (edcfbbe)=T pbc="F F F"
C       -0.76698463       0.98093377       0.04710413
C       -0.06968382      -0.04768025      -0.33422472
C        1.39534655      -0.05469086      -0.36393067
C        2.21198159       1.13028798      -0.05806891
C        1.42307592       1.20619432       2.44681048
C       -0.00134185       1.25907365       2.41556094
H       -0.22775611       2.00323622      -0.04398802
H       -1.84430194       0.87552514       0.04239744
H       -0.38283888      -1.04983243      -0.34303178
H        1.91099095      -1.01041298      -0.35598366
H        3.21489127       0.89680074       0.05056483
H        1.71355261       2.00709811      -0.04392068
H        1.91708012       0.34480871       2.56810864
H        1.99528062       2.02597977       2.46177864
H       -0.52092367       2.21414966       2.36944974
H       -0.52324480       0.33880888       2.71486695
