16
Properties=species:S:1:pos:R:3 energy:=T -17.817532948576=T gnorm:=T 0.000396279826=T xtb:=T 6.7.1=T (edcfbbe)=T pbc="F F F"
C       -0.71533825       1.01847512      -0.01337534
C       -0.07941655      -0.06474518      -0.30388337
C        1.46207209      -0.08090085      -0.33023675
C        2.16456374       1.07120455      -0.11229477
C        1.42211208       1.27099786       2.41339047
C        0.10124228       1.28407102       2.38390637
H       -0.31743151       2.13537347      -0.09977288
H       -1.83771809       0.88329261       0.13668419
H       -0.55331179      -1.03148422      -0.31728804
H        1.86911218      -1.04118551      -0.42874240
H        3.19615135       0.93058840       0.03536329
H        1.78319260       2.01705465       0.01928750
H        2.04488131       0.25774409       2.59321179
H        1.92485787       2.03218095       2.32231183
H       -0.45357731       2.18097054       2.30068088
H       -0.38499592       0.36892062       2.54701125
