16
Properties=species:S:1:pos:R:3 energy:=T -17.812259918842=T gnorm:=T 0.000930443810=T xtb:=T 6.7.1=T (edcfbbe)=T pbc="F F F"
C       -0.63467990       1.08763532       0.16963387
C       -0.07929954      -0.10523506      -0.31363846
C        1.53114945      -0.03311167      -0.19474403
C        2.19500562       0.98804775       0.01016715
C        1.38200963       1.30028113       2.21684070
C       -0.02899005       1.24357896       2.32988630
H       -0.18869317       2.08147017       0.02795044
H       -1.86039853       0.92848850       0.16515218
H       -0.45694005      -1.06751636      -0.34451744
H        2.00017062      -1.01470289      -0.39971794
H        3.25176551       0.96677453       0.22442040
H        1.74100852       2.09111047      -0.01998064
H        1.95247356       0.36790613       2.45049932
H        2.01055745       2.25925709       2.31550989
H       -0.48394939       2.12572218       2.36923350
H       -0.43219866       0.25546054       2.53528919
