16
Properties=species:S:1:pos:R:3 energy:=T -17.819328002362=T gnorm:=T 0.000336922030=T xtb:=T 6.7.1=T (edcfbbe)=T pbc="F F F"
C       -0.86173498       1.10309945      -0.07264562
C        0.00989779      -0.01060037      -0.30995669
C        1.55012362      -0.04865068      -0.23324310
C        2.17303649       0.99991243      -0.06272661
C        1.34030563       1.21528962       2.48061260
C        0.15940138       1.31256275       2.54604894
H       -0.32139855       2.07510962       0.06400238
H       -1.80754073       0.97015041      -0.00912007
H       -0.58392935      -1.03293361      -0.34824771
H        1.98542711      -1.04829479      -0.31020605
H        3.26216407       0.92769967       0.06567695
H        1.73645584       2.00688097      -0.05287803
H        1.96559422       0.31530349       2.64238590
H        1.90074998       2.07922234       2.45734648
H       -0.57202216       2.19506635       2.42546797
H       -0.53501034       0.32701370       2.58980167
