16
Properties=species:S:1:pos:R:3 energy:=T -17.820713068479=T gnorm:=T 0.000405323679=T xtb:=T 6.7.1=T (edcfbbe)=T pbc="F F F"
C       -0.71564238       1.19239235      -0.14115290
C        0.03739717      -0.07953632      -0.30167980
C        1.48361566       0.02206485      -0.35454878
C        2.14854419       1.01242314      -0.12657606
C        1.48120053       1.29927143       2.49669032
C        0.11110201       1.32308596       2.55103862
H       -0.37791054       2.04654990      -0.10124481
H       -1.94438247       1.01017310      -0.18973303
H       -0.47106342      -1.05392207      -0.40966589
H        1.90817898      -1.12109022      -0.35840401
H        3.30863429       0.93281717      -0.04919001
H        1.89714427       2.08559909       0.02982168
H        1.99301877       0.25631636       2.64973785
H        1.96912713       2.17066323       2.43136917
H       -0.54804576       2.21409552       2.52506187
H       -0.55936597       0.38029950       2.62697012
