16
Properties=species:S:1:pos:R:3 energy:=T -17.813369164842=T gnorm:=T 0.000460668107=T xtb:=T 6.7.1=T (edcfbbe)=T pbc="F F F"
C       -0.74167720       1.02607345       0.05557663
C        0.01626021      -0.09982093      -0.31047570
C        1.41965118      -0.03199186      -0.27419982
C        2.31538068       1.00473664       0.03672411
C        1.36304900       1.24155065       2.28270357
C        0.01069318       1.24547196       2.41436944
H       -0.37575658       1.97005532      -0.01339739
H       -1.77242858       1.02753169       0.08396135
H       -0.47202800      -1.07647799      -0.43638788
H        1.90194014      -1.09750473      -0.35123557
H        3.32608043       0.90919808       0.07943141
H        1.87423645       1.99708628       0.08393329
H        1.77404648       0.32227937       2.42891261
H        1.93088064       2.20294812       2.37740607
H       -0.50977493       2.21130811       2.23495306
H       -0.47678181       0.32275963       2.38452389
