16
Properties=species:S:1:pos:R:3 energy:=T -17.822313566467=T gnorm:=T 0.000397917922=T xtb:=T 6.7.1=T (edcfbbe)=T pbc="F F F"
C       -0.80234265       0.96285333      -0.28602922
C       -0.05828247       0.01177373      -0.38451976
C        1.35180399      -0.10941814      -0.37759783
C        2.25832219       0.95949644      -0.19852424
C        1.41469828       1.32738139       2.76404598
C        0.23001411       1.33193115       2.58451206
H       -0.39389402       2.01773641      -0.05395427
H       -1.80729812       0.98863964      -0.22807369
H       -0.41835509      -1.00313842      -0.43227126
H        1.96218872      -0.98409869      -0.41617148
H        3.36877047       1.01265787      -0.21510283
H        1.84209052       1.98767187      -0.19901937
H        1.97268205       0.32721123       2.71481727
H        1.92428477       2.08625883       2.52498655
H       -0.47826791       2.10533418       2.54061224
H       -0.40565991       0.41026500       2.69424203
