16
Properties=species:S:1:pos:R:3 energy:=T -17.815412885497=T gnorm:=T 0.000359351609=T xtb:=T 6.7.1=T (edcfbbe)=T pbc="F F F"
C       -0.78857039       0.88149896       0.01880707
C        0.02619911       0.00065077      -0.28179818
C        1.39984621      -0.01207588      -0.34565283
C        2.20176281       1.00315717       0.02456189
C        1.44201885       1.22178472       2.33088487
C        0.06744905       1.21461501       2.40930515
H       -0.31224450       2.07320144       0.10788304
H       -1.84492702       0.91102416       0.08636170
H       -0.44198092      -1.04498836      -0.45864460
H        2.04882808      -1.02491166      -0.43316321
H        3.16210503       1.00449815       0.07944432
H        1.79948557       1.95978411      -0.01855568
H        1.94504817       0.22130208       2.64421861
H        1.98742652       2.14022050       2.29248366
H       -0.52575972       2.26955815       2.35609345
H       -0.55628114       0.37954050       2.54245214
