16
Properties=species:S:1:pos:R:3 energy:=T -17.819328002362=T gnorm:=T 0.000336922030=T xtb:=T 6.7.1=T (edcfbbe)=T pbc="F F F"
C       -0.74011303       1.01683793      -0.16612943
C       -0.02025306       0.01846701      -0.33548716
C        1.44029268       0.07280365      -0.27059218
C        2.19645878       0.89774021      -0.07849847
C        1.31619203       1.25088535       2.42565276
C       -0.02234749       1.34828652       2.46969107
H       -0.29695688       2.04803074      -0.09231866
H       -1.82209928       0.91134575      -0.00128836
H       -0.42979574      -1.05486650      -0.28858939
H        1.95580103      -1.00746729      -0.43060583
H        3.32179297       0.84673259      -0.03070199
H        1.76693543       2.01533162      -0.06637316
H        1.97771491       0.36543943       2.58736157
H        1.96383443       2.07635442       2.30722809
H       -0.42361956       2.19622156       2.33158787
H       -0.38325946       0.30297190       2.62029405
