16
Properties=species:S:1:pos:R:3 energy:=T -17.812259918842=T gnorm:=T 0.000930443810=T xtb:=T 6.7.1=T (edcfbbe)=T pbc="F F F"
C       -0.74150747       0.94762048       0.07071696
C       -0.01411667       0.00845079      -0.36324765
C        1.36446475      -0.12103214      -0.29465637
C        2.20702083       0.95251892       0.03035921
C        1.31334288       1.21550434       2.19581040
C        0.19281378       1.34559608       2.20132651
H       -0.30584207       2.04177940      -0.05668915
H       -1.79551274       0.98492769       0.16579209
H       -0.48425942      -1.02401494      -0.31109297
H        1.91857367      -0.99841316      -0.37214083
H        3.28410579       0.93381166       0.15225041
H        1.74101018       2.03050645      -0.01477086
H        1.94408237       0.34488633       2.62943546
H        2.01284348       2.03638943       2.37174454
H       -0.48688393       2.08656308       2.37432294
H       -0.49581590       0.39367821       2.44717212
