16
Properties=species:S:1:pos:R:3 energy:=T -17.822687320067=T gnorm:=T 0.000356470142=T xtb:=T 6.7.1=T (edcfbbe)=T pbc="F F F"
C       -0.79308451       0.93203296      -0.27848117
C        0.05700448      -0.15139426      -0.35578849
C        1.37498710       0.00864857      -0.34634928
C        2.21549988       1.06941928      -0.35088121
C        1.36790828       1.37477067       2.69593977
C        0.15950128       1.27234336       2.66019074
H       -0.39235387       2.00796724      -0.24013826
H       -1.89850994       0.87170608      -0.35907244
H       -0.44379885      -1.02131083      -0.37184958
H        1.80599958      -0.99576466      -0.41936443
H        3.22616171       0.92619257      -0.21660905
H        1.87687499       2.04806489      -0.15622519
H        2.01840835       0.34765161       2.65139207
H        1.91730214       2.19246948       2.60377311
H       -0.45454292       2.21992111       2.63592566
H       -0.37893164       0.28949798       2.83840696
