16
Properties=species:S:1:pos:R:3 energy:=T -17.822956346966=T gnorm:=T 0.000685981590=T xtb:=T 6.7.1=T (edcfbbe)=T pbc="F F F"
C       -0.73513531       1.06503534      -0.33118458
C       -0.04853329      -0.01715413      -0.43603259
C        1.52277318      -0.14243062      -0.33767360
C        2.24499068       0.91638845      -0.37528344
C        1.39682829       1.28649285       2.75510156
C       -0.00000427       1.28141793       2.79091416
H       -0.36552924       2.05627268      -0.43063777
H       -1.83154137       1.00081771      -0.37725875
H       -0.50444173      -0.99706666      -0.42382186
H        1.98036302      -1.07329898      -0.54436047
H        3.31157435       0.88478636      -0.30273321
H        1.86533940       1.89022597      -0.39913492
H        2.02540868       0.40487718       2.86157261
H        1.96519676       2.20787109       2.77194403
H       -0.43439524       2.19475471       2.73282807
H       -0.51201712       0.43101370       2.74969701
