16
Properties=species:S:1:pos:R:3 energy:=T -17.822687320067=T gnorm:=T 0.000356470142=T xtb:=T 6.7.1=T (edcfbbe)=T pbc="F F F"
C       -0.82380621       0.91544041      -0.22348575
C        0.05596032      -0.10346080      -0.43022284
C        1.45753921      -0.15470213      -0.37351535
C        2.13140747       0.99279744      -0.37838897
C        1.37987679       1.33632842       2.68964158
C        0.11364250       1.22728390       2.65797618
H       -0.45329247       2.05500573      -0.21836229
H       -1.76628995       0.85992586      -0.27914203
H       -0.44749918      -0.97535843      -0.32730408
H        1.88429975      -1.10392797      -0.50693948
H        3.38114694       0.91462806      -0.30095453
H        1.84072160       1.87281821      -0.30312564
H        2.00879714       0.36857206       2.78684209
H        1.91259143       2.19872803       2.72129349
H       -0.56018904       2.16981843       2.60959877
H       -0.47871603       0.34925050       2.77178244
