16
Properties=species:S:1:pos:R:3 energy:=T -17.812259918842=T gnorm:=T 0.000930443810=T xtb:=T 6.7.1=T (edcfbbe)=T pbc="F F F"
C       -0.62638417       1.04475991       0.16144624
C        0.07447731      -0.11733467      -0.29764015
C        1.39467333      -0.08197184      -0.31637686
C        2.15641698       1.09437931       0.04237125
C        1.34098870       1.19083199       2.23041415
C        0.02583262       1.21690938       2.23313798
H       -0.25262068       2.06649645      -0.06696804
H       -1.71686442       1.02389238       0.18213999
H       -0.51372764      -0.99798983      -0.39151212
H        1.95327930      -1.08203691      -0.26892375
H        3.22917951       0.97552193       0.14893000
H        1.79203824       1.88715265      -0.09627348
H        1.82106470       0.38729272       2.40699768
H        1.87744719       2.21279282       2.26509572
H       -0.50427925       2.21006529       2.32058882
H       -0.47236211       0.36931697       2.37623416
