16
Properties=species:S:1:pos:R:3 energy:=T -17.822885844677=T gnorm:=T 0.000351651283=T xtb:=T 6.7.1=T (edcfbbe)=T pbc="F F F"
C       -0.65673015       1.01684630      -0.32545933
C       -0.03697786      -0.02673102      -0.37393913
C        1.38675144      -0.14277340      -0.41485729
C        2.19897250       1.07874020      -0.21921224
C        1.45204468       1.28847558       2.73450469
C        0.08043309       1.32415378       2.90776529
H       -0.31691301       1.98507719      -0.26132303
H       -1.88045160       0.86606745      -0.32354195
H       -0.43540372      -0.92264074      -0.42458402
H        2.01055239      -0.92726613      -0.42276008
H        3.42663310       0.96744933      -0.33933487
H        1.86666315       2.00561609      -0.27964151
H        1.95073820       0.36367561       2.86872261
H        1.90564282       2.17372722       2.58675663
H       -0.47788700       2.21660130       2.70092752
H       -0.47486945       0.39387306       2.79431308
