16
Properties=species:S:1:pos:R:3 energy:=T -17.819328002362=T gnorm:=T 0.000336922030=T xtb:=T 6.7.1=T (edcfbbe)=T pbc="F F F"
C       -0.73461276       1.05249553      -0.17716691
C        0.06558475      -0.18127899      -0.27888047
C        1.49587707      -0.09718878      -0.30431110
C        2.18272689       1.05736744      -0.26681231
C        1.34408251       1.14801188       2.48516489
C        0.14340592       1.31498092       2.51077451
H       -0.33783960       1.96354771       0.01457247
H       -1.79455548       0.88653630      -0.12610168
H       -0.48881026      -0.97693117      -0.31864841
H        2.01151612      -1.07602280      -0.40459592
H        3.37160622       0.94336856      -0.01704301
H        1.75058643       1.98473034      -0.05129797
H        1.94534961       0.32239915       2.50346780
H        2.05402989       2.17075937       2.34003592
H       -0.43930656       2.16671078       2.45622272
H       -0.50410341       0.30326509       2.55070189
