16
Properties=species:S:1:pos:R:3 energy:=T -17.822885844677=T gnorm:=T 0.000351651283=T xtb:=T 6.7.1=T (edcfbbe)=T pbc="F F F"
C       -0.83346018       0.99289817      -0.31861594
C        0.08262003      -0.02873119      -0.42613632
C        1.50580979      -0.01630596      -0.38450987
C        2.22798156       0.99232665      -0.42255371
C        1.40551853       1.27950259       2.70721260
C        0.12502387       1.17498091       2.72762034
H       -0.40961642       2.13330261      -0.36788766
H       -1.81119812       0.98029771      -0.28650675
H       -0.37179678      -1.11213243      -0.57638527
H        1.96852624      -1.12468256      -0.44932006
H        3.24113164       0.98748059      -0.25481038
H        1.80188734       2.06281883      -0.25602635
H        1.95513119       0.35764660       2.82614528
H        2.00553942       2.19454377       2.66709184
H       -0.43010832       2.13462246       2.70848663
H       -0.46676951       0.45009785       2.80647151
