16
Properties=species:S:1:pos:R:3 energy:=T -17.813369164842=T gnorm:=T 0.000460668107=T xtb:=T 6.7.1=T (edcfbbe)=T pbc="F F F"
C       -0.66163266       1.17180840       0.02127847
C       -0.01616708      -0.03591091      -0.26081496
C        1.42269633       0.03234656      -0.24170388
C        2.23367200       1.01875290       0.03794359
C        1.45126880       1.16642800       2.27171857
C        0.07044376       1.16301906       2.39203094
H       -0.35045295       1.99104648       0.00504492
H       -1.71481762       0.94134465       0.08820718
H       -0.50873786      -1.01343173      -0.40791862
H        2.04941905      -0.96306675      -0.53490303
H        3.21321403       0.96082016       0.23941583
H        1.69073904       1.99046689       0.04827648
H        1.92859448       0.33792921       2.47167223
H        1.99986577       2.09845721       2.31019698
H       -0.56827887       2.20032327       2.33875654
H       -0.49442617       0.33627493       2.49756813
