16
Properties=species:S:1:pos:R:3 energy:=T -17.822687320067=T gnorm:=T 0.000356470142=T xtb:=T 6.7.1=T (edcfbbe)=T pbc="F F F"
C       -0.73365255       1.03416881      -0.30657125
C        0.08685428      -0.06361082      -0.27327652
C        1.53503172      -0.13519282      -0.40917399
C        2.18760410       1.01858759      -0.26811142
C        1.40681975       1.21642991       2.72681518
C        0.15139985       1.18829493       2.69326724
H       -0.36335940       1.99648952      -0.22504102
H       -1.75142867       0.98994286      -0.22072988
H       -0.49132550      -0.92411294      -0.39826286
H        1.88729910      -1.06342190      -0.44419351
H        3.42996620       0.93182130      -0.26309945
H        1.72875381       2.04356084      -0.27139381
H        1.90244023       0.38361525       2.73453175
H        2.01021986       2.23164388       2.53681330
H       -0.50380507       2.08599076       2.63017960
H       -0.44564248       0.27683459       2.87859218
