16
Properties=species:S:1:pos:R:3 energy:=T -17.822313566467=T gnorm:=T 0.000397917922=T xtb:=T 6.7.1=T (edcfbbe)=T pbc="F F F"
C       -0.86825758       0.93811771      -0.19588226
C       -0.02706694      -0.03579455      -0.27136215
C        1.44247419      -0.04930701      -0.22800154
C        2.27634577       1.10226697      -0.14833380
C        1.43256707       1.25324155       2.60368525
C        0.01894631       1.28409754       2.67123778
H       -0.38108143       2.04811159      -0.19673765
H       -1.78658082       0.92575552      -0.22055816
H       -0.45022712      -1.04698225      -0.27936725
H        1.83715771      -1.03275455      -0.34348734
H        3.35081037       0.90814380      -0.12897308
H        1.78698941       1.93703894      -0.13630935
H        1.88927261       0.22684793       2.77717023
H        2.00528015       2.20691147       2.55043960
H       -0.48659269       2.11942351       2.66499424
H       -0.45350862       0.38773173       2.63113900
