16
Properties=species:S:1:pos:R:3 energy:=T -17.813369164842=T gnorm:=T 0.000460668107=T xtb:=T 6.7.1=T (edcfbbe)=T pbc="F F F"
C       -0.75948250       1.10936409      -0.04296406
C        0.04737802      -0.06045495      -0.39152442
C        1.54126137      -0.09291389      -0.29926518
C        2.19837659       0.96624790      -0.01079241
C        1.40067993       1.18676225       2.31564316
C        0.13309931       1.17953912       2.22545798
H       -0.32799785       2.03257969       0.02396410
H       -1.84869547       0.81608580       0.17185375
H       -0.42589487      -0.94497903      -0.43231144
H        1.96195424      -0.97203111      -0.47906209
H        3.31418993       1.01888584       0.15578203
H        1.81746215       2.05070800      -0.02593607
H        1.88449242       0.28378560       2.48550551
H        1.92035119       2.20598334       2.28601829
H       -0.50415501       2.05657682       2.32902087
H       -0.53149986       0.41386783       2.40299665
