16
Properties=species:S:1:pos:R:3 energy:=T -17.822687320067=T gnorm:=T 0.000356470142=T xtb:=T 6.7.1=T (edcfbbe)=T pbc="F F F"
C       -0.82714633       1.00227466      -0.30854347
C       -0.00277559      -0.07181191      -0.32013897
C        1.42433056      -0.08685892      -0.29594672
C        2.22718340       0.98801775      -0.22292193
C        1.40609600       1.26358720       2.71443739
C        0.00166516       1.28508464       2.77859007
H       -0.34515426       1.91141815      -0.19984480
H       -1.90129756       0.90563951      -0.26090788
H       -0.52096474      -0.96955743      -0.42342239
H        1.96280216      -1.01000906      -0.34145817
H        3.38282906       0.83385812      -0.26548612
H        1.72002959       1.97642861      -0.17419986
H        2.01507123       0.42382709       2.75804651
H        1.98231406       2.17540578       2.70566258
H       -0.40567534       2.14906911       2.85149656
H       -0.49632319       0.32813890       2.81478949
