16
Properties=species:S:1:pos:R:3 energy:=T -17.813738202088=T gnorm:=T 0.000438383854=T xtb:=T 6.7.1=T (edcfbbe)=T pbc="F F F"
C       -0.69792084       1.04889187       0.15507618
C       -0.01894322       0.02253099      -0.26815840
C        1.49546209       0.03371607      -0.31488223
C        2.11756498       1.03521683       0.18370829
C        1.48827138       1.10292072       2.29180116
C        0.02355378       1.25028958       2.12643034
H       -0.36520883       2.04138302      -0.15565325
H       -1.70558105       0.91706266       0.24900960
H       -0.46090487      -1.05128107      -0.32079885
H        2.08005205      -0.98028686      -0.50226569
H        3.23127667       0.93583806       0.28695033
H        1.78602463       2.14783955      -0.00723839
H        1.99309139       0.31156746       2.43435718
H        1.95671358       2.15916750       2.32047707
H       -0.47972540       2.13026868       2.29472873
H       -0.51497786       0.27286244       2.43567790
