16
Properties=species:S:1:pos:R:3 energy:=T -17.822313566467=T gnorm:=T 0.000397917922=T xtb:=T 6.7.1=T (edcfbbe)=T pbc="F F F"
C       -0.77757303       1.04516864      -0.30472132
C        0.06066889      -0.08754676      -0.29104107
C        1.38147509      -0.08546879      -0.33103265
C        2.28690627       0.94466248      -0.14158293
C        1.41856585       1.23195500       2.70973140
C        0.08154261       1.31862880       2.76664458
H       -0.33253278       1.97726932      -0.18747787
H       -1.81383897       0.93850788      -0.26155090
H       -0.48459215      -1.00764025      -0.28688928
H        1.78488433      -1.00464008      -0.41848433
H        3.35392462       0.96836756      -0.21596216
H        1.78979387       1.93249354      -0.26203513
H        2.02715312       0.33864701       2.70385392
H        1.95173977       2.10023468       2.59124472
H       -0.42816723       2.22777085       2.49501190
H       -0.42412543       0.31014083       2.63323066
