16
Properties=species:S:1:pos:R:3 energy:=T -17.819328002362=T gnorm:=T 0.000336922030=T xtb:=T 6.7.1=T (edcfbbe)=T pbc="F F F"
C       -0.73400562       1.05484127      -0.06859466
C        0.04997175       0.00754629      -0.27454276
C        1.51675588       0.00236473      -0.27391215
C        2.22157424       0.98626631      -0.16489511
C        1.30830950       1.32860977       2.47631467
C        0.04462065       1.34405272       2.53305490
H       -0.34540025       2.06449180      -0.05893123
H       -1.80465015       1.03876067       0.00569300
H       -0.46813890      -0.99192485      -0.31455467
H        1.92166312      -1.05538196      -0.27436049
H        3.28437317       0.85960666      -0.04564833
H        1.95668862       2.04519702       0.00946907
H        1.84510499       0.31843683       2.66587104
H        1.95018856       2.24499240       2.45177608
H       -0.46719379       2.26648336       2.39599060
H       -0.51374730       0.35813811       2.61074242
