16
Properties=species:S:1:pos:R:3 energy:=T -17.819328002362=T gnorm:=T 0.000336922030=T xtb:=T 6.7.1=T (edcfbbe)=T pbc="F F F"
C       -0.72220496       0.97648675      -0.10531844
C       -0.06961980      -0.07443277      -0.40335465
C        1.45949114      -0.08580753      -0.16186967
C        2.30576801       1.00425264      -0.03679509
C        1.41643058       1.18542558       2.33200880
C        0.14394577       1.27775793       2.35992524
H       -0.31002386       2.06207251      -0.08921862
H       -1.77779318       0.83011819      -0.06880611
H       -0.45097794      -0.98536885      -0.35931059
H        1.94071013      -0.99916120      -0.42293903
H        3.38889982       0.91291680      -0.00812242
H        1.82260604       1.99131660      -0.01342170
H        1.99283978       0.42718382       2.65702919
H        1.93437848       2.19468164       2.42538939
H       -0.54335690       2.09806610       2.43457532
H       -0.52496464       0.26240568       2.58642376
