16
Properties=species:S:1:pos:R:3 energy:=T -17.822885844677=T gnorm:=T 0.000351651283=T xtb:=T 6.7.1=T (edcfbbe)=T pbc="F F F"
C       -0.85816845       0.89283524      -0.38538194
C       -0.02339475      -0.09900435      -0.34304122
C        1.47658950      -0.13660711      -0.34529042
C        2.35030008       1.07235694      -0.25650593
C        1.39438170       1.31965475       2.70907503
C        0.11904793       1.25934653       2.82720496
H       -0.35246477       1.94266959      -0.25668765
H       -1.77916425       0.85542649      -0.34256447
H       -0.49194431      -1.13117415      -0.37396007
H        1.99250825      -1.00185632      -0.41443167
H        3.31485783       0.93253362      -0.35227582
H        1.89905968       2.06295793      -0.21138425
H        1.93428793       0.35832933       2.82999138
H        2.06629441       2.18448469       2.58380320
H       -0.47309521       2.28040950       2.72842280
H       -0.44468164       0.35596647       2.72829428
