16
Properties=species:S:1:pos:R:3 energy:=T -17.821683480713=T gnorm:=T 0.000421170293=T xtb:=T 6.7.1=T (edcfbbe)=T pbc="F F F"
C       -0.75866830       0.91997877      -0.20318374
C        0.05082702      -0.07535867      -0.24306135
C        1.54233184      -0.10486549      -0.34976980
C        2.23018347       0.93106748      -0.16002983
C        1.38262748       1.30702813       2.55072179
C        0.01941978       1.37450854       2.53283506
H       -0.40430561       1.95716720      -0.14061498
H       -1.89900308       0.92318790      -0.21358462
H       -0.47821142      -1.01621215      -0.35430562
H        1.95144835      -1.08663177      -0.37379761
H        3.30257520       0.91928492      -0.27879526
H        1.87979126       1.99517995      -0.01175342
H        2.00532688       0.27640654       2.59519026
H        2.04012935       2.11078337       2.56203472
H       -0.51562952       2.30172884       2.52331691
H       -0.39718774       0.43350787       2.65359853
