16
Properties=species:S:1:pos:R:3 energy:=T -17.812259918842=T gnorm:=T 0.000930443810=T xtb:=T 6.7.1=T (edcfbbe)=T pbc="F F F"
C       -0.59220812       0.91339051       0.06599944
C       -0.04750161      -0.08040130      -0.25598456
C        1.35970344      -0.00333320      -0.33505524
C        2.11008635       0.92386250       0.03434825
C        1.36669237       1.27610517       2.16812567
C        0.07256941       1.27686683       2.24424199
H       -0.26914798       1.97629270       0.00136070
H       -1.79037095       1.07174864       0.16652305
H       -0.48257392      -0.99804740      -0.41682579
H        1.92381916      -1.00183059      -0.33526033
H        3.20635635       0.94987510       0.17307084
H        1.82431469       2.06430129       0.00077043
H        1.97589336       0.43600828       2.43457193
H        2.06029780       2.18058861       2.20353759
H       -0.48757397       2.06718091       2.28545459
H       -0.60829124       0.37434356       2.43942908
