16
Properties=species:S:1:pos:R:3 energy:=T -17.813738202088=T gnorm:=T 0.000438383854=T xtb:=T 6.7.1=T (edcfbbe)=T pbc="F F F"
C       -0.65816307       1.06297111       0.10561172
C        0.02782557      -0.03880409      -0.29368569
C        1.60206946      -0.06101721      -0.31407418
C        2.05804213       1.03556426       0.17166582
C        1.41679606       1.28689149       2.17416999
C        0.04482653       1.21100752       2.16575060
H       -0.39124602       1.96874652      -0.14995080
H       -1.71358975       0.94021332       0.22690786
H       -0.50033835      -0.96745191      -0.44450195
H        2.02943465      -0.96034419      -0.43668837
H        3.21330375       0.98283315       0.29899419
H        1.74019628       1.99290435       0.08451319
H        2.00617012       0.37981191       2.59051304
H        1.98551831       2.12273413       2.19978489
H       -0.44592554       2.08673612       2.32745015
H       -0.59233505       0.30690532       2.48668799
