16
Properties=species:S:1:pos:R:3 energy:=T -17.815412885497=T gnorm:=T 0.000359351609=T xtb:=T 6.7.1=T (edcfbbe)=T pbc="F F F"
C       -0.81685452       1.02651111      -0.02499873
C        0.19686353      -0.00917038      -0.36080857
C        1.44024758       0.03980837      -0.36479572
C        2.16781955       1.01292884      -0.02193003
C        1.35833190       1.25046990       2.26673465
C        0.02925256       1.19957474       2.34365644
H       -0.35114113       2.00743389      -0.03859632
H       -1.83438635       0.96331123       0.12567500
H       -0.39483762      -1.10993982      -0.36251990
H        1.98107827      -1.04848854      -0.34732245
H        3.25765282       0.96411222      -0.04297424
H        1.83013334       1.97352175      -0.06607222
H        1.94115128       0.40518245       2.58347619
H        1.98284440       2.21496153       2.30804353
H       -0.58531991       2.02525794       2.33408618
H       -0.50544961       0.33900337       2.52244628
