16
Properties=species:S:1:pos:R:3 energy:=T -17.817532948576=T gnorm:=T 0.000396279826=T xtb:=T 6.7.1=T (edcfbbe)=T pbc="F F F"
C       -0.82722304       0.90348765      -0.07641513
C       -0.05312398       0.01420418      -0.31024444
C        1.48473380      -0.14087475      -0.25002649
C        2.24932273       1.07945811      -0.04289817
C        1.42572702       1.25607215       2.47082396
C        0.04917781       1.27696459       2.38802982
H       -0.30161366       1.99010007      -0.06356459
H       -1.85530859       1.01633749      -0.08499533
H       -0.54075207      -0.99723199      -0.43613730
H        1.90167673      -1.05986221      -0.25465986
H        3.24932591       0.89483763      -0.02025538
H        1.82254560       2.03320051      -0.10904924
H        1.98819918       0.44941486       2.45230318
H        1.99861118       2.20243051       2.38339186
H       -0.50820297       2.02936989       2.44132302
H       -0.51222565       0.32988875       2.61940370
