16
Properties=species:S:1:pos:R:3 energy:=T -17.820307793211=T gnorm:=T 0.000596792534=T xtb:=T 6.7.1=T (edcfbbe)=T pbc="F F F"
C       -0.63022758       1.02160964       0.02699558
C        0.03908521      -0.10093280      -0.30247251
C        1.39690580      -0.01918992      -0.30928805
C        2.16766080       0.90510381       0.09467102
C        1.43449188       1.16253088       2.15501188
C        0.03192086       1.23259961       2.13122558
H       -0.27914433       1.92830248      -0.11613729
H       -1.64077410       0.91981223       0.37107270
H       -0.45377184      -1.03304172      -0.41820363
H        2.05039148      -1.03791061      -0.49604336
H        3.24246708       0.99349180       0.32721825
H        1.69219677       2.04246054      -0.08572033
H        1.93443443       0.31229738       2.53621873
H        1.94897768       2.14919958       2.43787776
H       -0.47934624       2.07718328       2.24873349
H       -0.52951536       0.23827937       2.57592787
