16
Properties=species:S:1:pos:R:3 energy:=T -17.820713068479=T gnorm:=T 0.000405323679=T xtb:=T 6.7.1=T (edcfbbe)=T pbc="F F F"
C       -0.63810377       0.95657073      -0.16497225
C       -0.02297360       0.01488063      -0.31872372
C        1.54082918      -0.05115383      -0.30302515
C        2.14315905       1.08459566      -0.10637227
C        1.42108376       1.24838981       2.50745384
C       -0.00156187       1.31378842       2.54962579
H       -0.38060227       1.96653953      -0.07380536
H       -1.83943422       1.03097647      -0.06600038
H       -0.48851653      -1.10378539      -0.40485754
H        1.86846414      -1.03108498      -0.36545320
H        3.34565997       0.95567211      -0.12516410
H        1.86822866       1.95086773      -0.08551113
H        2.01588145       0.36576409       2.55887728
H        1.89736402       2.06730730       2.57825197
H       -0.59017391       2.15827550       2.58036654
H       -0.42618771       0.42939441       2.60667018
