16
Properties=species:S:1:pos:R:3 energy:=T -17.817532948576=T gnorm:=T 0.000396279826=T xtb:=T 6.7.1=T (edcfbbe)=T pbc="F F F"
C       -0.73655333       0.96955546      -0.10324450
C        0.05335425       0.04113832      -0.33258417
C        1.49755349      -0.22708413      -0.36391919
C        2.25561613       1.10505225      -0.04848946
C        1.43152564       1.26484842       2.48076752
C        0.01293511       1.28661657       2.39789881
H       -0.35692371       2.00853429      -0.03599742
H       -1.85847432       0.92356783      -0.04963071
H       -0.36997213      -0.98880790      -0.40122966
H        2.02247514      -0.95504016      -0.34935986
H        3.25943457       0.95324872       0.03778973
H        1.89320031       1.99864804      -0.05658511
H        2.09880573       0.42444697       2.57274222
H        1.91718407       2.19122463       2.44253007
H       -0.45054379       2.21064636       2.38070996
H       -0.42543131       0.30995360       2.52942798
