16
Properties=species:S:1:pos:R:3 energy:=T -17.815412885497=T gnorm:=T 0.000359351609=T xtb:=T 6.7.1=T (edcfbbe)=T pbc="F F F"
C       -0.62298475       1.07282469       0.04453613
C        0.18749078      -0.05106824      -0.25385230
C        1.38871821      -0.17623960      -0.26848329
C        2.22495813       1.05017645       0.00500254
C        1.29738271       1.26177342       2.42397694
C        0.15201287       1.19324032       2.31963057
H       -0.36506951       1.97581107      -0.09701057
H       -1.83945992       1.02160905       0.00965133
H       -0.55714546      -1.04283015      -0.40454828
H        1.96573556      -1.06708296      -0.38782125
H        3.23076700       0.88885679       0.08336257
H        1.80577875       2.00559134       0.01322781
H        1.92052723       0.33905566       2.52994029
H        2.02826042       2.05823585       2.31948562
H       -0.47414437       2.12636588       2.34242671
H       -0.45824014       0.36283140       2.42980567
