16
Properties=species:S:1:pos:R:3 energy:=T -17.813738202088=T gnorm:=T 0.000438383854=T xtb:=T 6.7.1=T (edcfbbe)=T pbc="F F F"
C       -0.75685838       0.99270356       0.06897167
C        0.04260940      -0.14077434      -0.30160428
C        1.51448284       0.01325850      -0.17697436
C        2.17842691       1.00080907       0.13616160
C        1.46092673       1.23706400       2.28969979
C        0.01212926       1.20887543       2.11772111
H       -0.33673902       2.09124114      -0.04572922
H       -1.71066046       0.97409648       0.28826464
H       -0.51815465      -0.98711538      -0.36011794
H        2.00682779      -0.93732458      -0.42827098
H        3.14108538       0.91218684       0.30905597
H        1.72483614       1.93975326      -0.12467592
H        1.88194783       0.37384673       2.44319541
H        1.92563249       2.21319548       2.34596448
H       -0.44073765       2.10271786       2.19312140
H       -0.46688107       0.43379083       2.46702356
