16
Properties=species:S:1:pos:R:3 energy:=T -17.822885844677=T gnorm:=T 0.000351651283=T xtb:=T 6.7.1=T (edcfbbe)=T pbc="F F F"
C       -0.78742455       1.03204617      -0.25913545
C        0.02951421       0.06911452      -0.38210245
C        1.51453729       0.00083512      -0.38435197
C        2.20117398       0.94214242      -0.30371754
C        1.45219269       1.27867206       2.77267274
C        0.05661149       1.29404724       2.65010771
H       -0.36637712       2.00555375      -0.33665130
H       -1.73227761       0.84537361      -0.36827685
H       -0.51240258      -0.98797563      -0.47525667
H        1.95416252      -1.01572918      -0.41430878
H        3.24836673       0.88655185      -0.22223970
H        1.78018236       1.95991312      -0.27252666
H        2.00714611       0.36727298       2.87872608
H        1.90888263       2.22452278       2.72002756
H       -0.58020084       2.25614216       2.81153604
H       -0.53502635       0.35688993       2.91353084
