16
Properties=species:S:1:pos:R:3 energy:=T -17.812259918842=T gnorm:=T 0.000930443810=T xtb:=T 6.7.1=T (edcfbbe)=T pbc="F F F"
C       -0.67317605       1.10334736       0.11011048
C        0.07153606      -0.10588990      -0.20363403
C        1.40292053      -0.05835634      -0.22284043
C        2.15129818       1.02640977       0.07548414
C        1.41889531       1.26220814       2.17198965
C        0.02979024       1.34777908       2.14557216
H       -0.35073382       2.06286784      -0.12947865
H       -1.82095695       0.89971239       0.27391688
H       -0.51556873      -0.98485260      -0.42262890
H        1.93581451      -1.08719786      -0.47143798
H        3.21380541       0.86653235       0.17277277
H        1.79063900       2.04028130       0.06586948
H        2.04267982       0.26784512       2.44172705
H        2.06312093       2.14608384       2.27015969
H       -0.43306186       2.11304278       2.34666987
H       -0.50801180       0.40695571       2.47674610
