16
Properties=species:S:1:pos:R:3 energy:=T -17.822956346966=T gnorm:=T 0.000685981590=T xtb:=T 6.7.1=T (edcfbbe)=T pbc="F F F"
C       -0.77065725       0.99245769      -0.34135770
C       -0.08770369       0.04037647      -0.43723306
C        1.36964185      -0.03097528      -0.42241313
C        2.26580825       0.98282942      -0.35704979
C        1.40776514       1.22289928       2.86391409
C        0.04882540       1.21555339       2.82794371
H       -0.35527934       1.98981418      -0.36767310
H       -1.81215493       0.81049232      -0.41822754
H       -0.44575381      -1.13070269      -0.43975418
H        1.91484844      -0.99558078      -0.49611996
H        3.28179248       0.93567814      -0.50353433
H        2.03724496       1.96174254      -0.35974868
H        2.01550282       0.35527439       2.79965337
H        2.00275464       2.22806292       2.71250240
H       -0.51210242       2.20599527       2.68507804
H       -0.46782378       0.36959090       2.86570155
