16
Properties=species:S:1:pos:R:3 energy:=T -17.821683480713=T gnorm:=T 0.000421170293=T xtb:=T 6.7.1=T (edcfbbe)=T pbc="F F F"
C       -0.78463123       1.02990086      -0.21522573
C        0.03260554       0.00542221      -0.36522325
C        1.36229844      -0.08975513      -0.39470008
C        2.19202328       1.00061439      -0.18803812
C        1.47048437       1.19670917       2.61003558
C        0.04579994       1.33741973       2.73862661
H       -0.34883262       2.10308958      -0.15243564
H       -1.93484527       0.85096745      -0.26176019
H       -0.50793585      -1.05366746      -0.33127976
H        1.96289342      -1.01203834      -0.42430351
H        3.26761781       0.92806615      -0.16026527
H        1.85191145       2.02609292      -0.12806592
H        1.85051868       0.28203623       2.63432904
H        2.06666785       2.14159668       2.55807063
H       -0.40978907       2.18659617       2.49495594
H       -0.51167253       0.28755664       2.70127093
