16
Properties=species:S:1:pos:R:3 energy:=T -17.821683480713=T gnorm:=T 0.000421170293=T xtb:=T 6.7.1=T (edcfbbe)=T pbc="F F F"
C       -0.73339910       0.97200816      -0.09396695
C       -0.02263345      -0.05862755      -0.24068683
C        1.41424746       0.00920113      -0.36282756
C        2.25007992       0.99169604      -0.18915403
C        1.40305788       1.25257888       2.53275930
C        0.12386991       1.29668351       2.66073222
H       -0.28995750       1.92957331      -0.04979198
H       -1.76831437       0.89655117      -0.11086916
H       -0.37005965      -1.06935180      -0.47574255
H        1.90157786      -0.88456221      -0.38614916
H        3.24295181       0.91207028      -0.22353740
H        1.81461924       2.00940466      -0.26318768
H        1.98429004       0.42642960       2.67219117
H        1.94513441       2.22751052       2.44791171
H       -0.56545360       2.08976443       2.50944838
H       -0.47248374       0.34297522       2.71364135
