16
Properties=species:S:1:pos:R:3 energy:=T -17.822313566467=T gnorm:=T 0.000397917922=T xtb:=T 6.7.1=T (edcfbbe)=T pbc="F F F"
C       -0.85018956       0.93325297      -0.12733192
C       -0.07238749      -0.03734283      -0.37423608
C        1.42551993      -0.15547438      -0.37665772
C        2.27675303       0.94316263      -0.19988035
C        1.40820157       1.35224217       2.62517200
C        0.13461873       1.30008581       2.63385947
H       -0.44889673       2.07409697      -0.22859784
H       -1.86568433       0.96448995      -0.16713567
H       -0.48926707      -1.04337787      -0.41958868
H        1.97481613      -0.92619339      -0.49215305
H        3.35615328       0.79168819      -0.21803130
H        1.79085464       2.09639090      -0.15790982
H        1.93022053       0.32637278       2.70508016
H        1.97472921       2.16185467       2.60586764
H       -0.42487421       2.20158932       2.51895049
H       -0.56929720       0.31457102       2.78031760
