16
Properties=species:S:1:pos:R:3 energy:=T -17.822956346966=T gnorm:=T 0.000685981590=T xtb:=T 6.7.1=T (edcfbbe)=T pbc="F F F"
C       -0.75387895       1.05662716      -0.33195700
C       -0.07654650      -0.00902886      -0.37213410
C        1.42673771      -0.03013824      -0.37746022
C        2.26553643       1.00498584      -0.31787942
C        1.34511687       1.25693524       2.79193866
C        0.11591448       1.27013986       2.80429493
H       -0.43280189       1.98676452      -0.31557145
H       -1.86715840       1.00000631      -0.29103913
H       -0.62465023      -1.17232298      -0.45280802
H        1.89063850      -1.03540687      -0.42727255
H        3.45711636       0.84334909      -0.38117974
H        1.98490034       2.04562511      -0.27293627
H        1.93054583       0.25034406       2.91695255
H        1.97236791       2.09700128       2.69491815
H       -0.49995609       2.11542136       2.73301680
H       -0.48781852       0.35999166       2.87309046
