16
Properties=species:S:1:pos:R:3 energy:=T -17.821683480713=T gnorm:=T 0.000421170293=T xtb:=T 6.7.1=T (edcfbbe)=T pbc="F F F"
C       -0.78482413       1.09012043      -0.18384870
C       -0.03755676       0.00369076      -0.17511469
C        1.45886993       0.01497612      -0.32519240
C        2.31294526       0.99644371      -0.10913389
C        1.42600860       1.24861319       2.60437958
C        0.04822607       1.19708882       2.53352555
H       -0.36724573       1.94862980      -0.09390987
H       -1.80794424       0.95519561      -0.19247491
H       -0.44497371      -1.03739736      -0.32285373
H        1.88065584      -1.05700796      -0.40844807
H        3.30613606       0.88855185      -0.19928187
H        1.89653506       1.97277140      -0.06673425
H        2.08029742       0.42228645       2.58740857
H        2.01288610       2.19712835       2.55207363
H       -0.58206257       2.21261836       2.46204195
H       -0.41917538       0.41087091       2.82738648
