16
Properties=species:S:1:pos:R:3 energy:=T -17.817532948576=T gnorm:=T 0.000396279826=T xtb:=T 6.7.1=T (edcfbbe)=T pbc="F F F"
C       -0.64496796       1.02706928      -0.13624016
C        0.01767363      -0.02215979      -0.25456817
C        1.57451458      -0.07416926      -0.34885427
C        2.17553314       1.05209447      -0.10354584
C        1.33385010       1.19626842       2.49505007
C        0.08770524       1.22711558       2.47295183
H       -0.29733353       1.94654603       0.02477093
H       -1.80153342       0.80904140      -0.07051309
H       -0.44128028      -1.00131066      -0.39733805
H        1.86734433      -1.01588506      -0.49229501
H        3.32229132       0.92697092       0.00107134
H        1.77103462       2.05800696      -0.16959987
H        1.91146478       0.37827126       2.50944388
H        2.05822049       2.18748621       2.32934122
H       -0.42741124       2.15599092       2.41260998
H       -0.53018719       0.30645339       2.59734980
