16
Properties=species:S:1:pos:R:3 energy:=T -17.820713068479=T gnorm:=T 0.000405323679=T xtb:=T 6.7.1=T (edcfbbe)=T pbc="F F F"
C       -0.78346643       1.05189582      -0.14237861
C       -0.02117515      -0.05773004      -0.42227728
C        1.42494081      -0.08786998      -0.38617267
C        2.24376284       1.02636255      -0.17623281
C        1.38567258       1.29613214       2.59696568
C        0.03001432       1.27574208       2.59543566
H       -0.36088570       1.95795899      -0.12805949
H       -1.85410309       0.86656508       0.00746578
H       -0.48731225      -1.01386462      -0.38028225
H        1.96203006      -1.06024335      -0.47019139
H        3.40448332       0.92397265      -0.10781451
H        1.84194803       2.08044593      -0.03567504
H        2.03542856       0.39625458       2.64469634
H        1.98215568       2.11995101       2.34817524
H       -0.51108645       2.10002170       2.62234458
H       -0.39982238       0.41745139       2.60211952
