16
Properties=species:S:1:pos:R:3 energy:=T -17.812259918842=T gnorm:=T 0.000930443810=T xtb:=T 6.7.1=T (edcfbbe)=T pbc="F F F"
C       -0.65662108       1.07678651       0.16249832
C       -0.01676622      -0.08365738      -0.36270523
C        1.35018597      -0.08979390      -0.27729910
C        2.23882846       0.99689749       0.17847911
C        1.41961573       1.27564259       2.24493377
C       -0.00803184       1.31370859       2.24304571
H       -0.25366278       1.99639542       0.00893774
H       -1.77977769       0.92735375       0.17473442
H       -0.42845025      -1.08721237      -0.43912788
H        1.98820468      -1.06161447      -0.37651776
H        3.16751819       0.93421229       0.24207659
H        1.78784488       2.02732468      -0.04458782
H        1.96516068       0.23463587       2.39592353
H        1.98656303       2.05271698       2.36249621
H       -0.45009194       2.08314076       2.17326104
H       -0.62278484       0.34755609       2.47896018
