16
Properties=species:S:1:pos:R:3 energy:=T -17.813369164842=T gnorm:=T 0.000460668107=T xtb:=T 6.7.1=T (edcfbbe)=T pbc="F F F"
C       -0.68692986       1.00759263       0.02127652
C        0.03295923      -0.07439873      -0.36871192
C        1.38913430      -0.06141589      -0.38004507
C        2.17917404       0.99638926       0.07489392
C        1.41274732       1.21662883       2.29319494
C        0.09133543       1.29028015       2.24690093
H       -0.41174908       1.96710692      -0.14910254
H       -1.83627659       0.99242552       0.18368546
H       -0.37202499      -1.02152329      -0.37082416
H        1.89706716      -1.05661121      -0.36297242
H        3.31244448       0.96838099       0.00432709
H        1.81857326       2.01163385      -0.04687856
H        1.97021024       0.38713568       2.50376260
H        1.92286361       2.35120793       2.27044909
H       -0.47023766       2.22648010       2.25669280
H       -0.46091554       0.28281357       2.47931842
