16
Properties=species:S:1:pos:R:3 energy:=T -17.821683480713=T gnorm:=T 0.000421170293=T xtb:=T 6.7.1=T (edcfbbe)=T pbc="F F F"
C       -0.80794611       1.04300710      -0.26078020
C        0.01137062      -0.13082422      -0.21521390
C        1.57025469      -0.01383414      -0.21157683
C        2.27254463       1.04102453      -0.20344452
C        1.34964850       1.26726915       2.56401825
C        0.05588394       1.29963325       2.58595857
H       -0.44720519       1.99604662      -0.15863438
H       -1.85261141       0.87048196      -0.10026060
H       -0.34551360      -1.09583400      -0.36085838
H        1.95719712      -1.09385067      -0.39035122
H        3.38973374       0.97513560      -0.07780747
H        1.77709840       1.96724427      -0.10214582
H        1.98661439       0.35246174       2.66543042
H        1.94733151       2.13715738       2.54542827
H       -0.64203794       2.25592310       2.49259496
H       -0.56857724       0.38006268       2.61016804
