16
Properties=species:S:1:pos:R:3 energy:=T -17.813369164842=T gnorm:=T 0.000460668107=T xtb:=T 6.7.1=T (edcfbbe)=T pbc="F F F"
C       -0.66219816       0.97156706       0.05765889
C       -0.02953252      -0.05187446      -0.24683821
C        1.44755227      -0.09321378      -0.24728219
C        2.19975585       0.98783060       0.03323240
C        1.39720785       1.21207583       2.36743726
C        0.17538370       1.20140386       2.30280285
H       -0.38057823       1.92658262       0.06009175
H       -1.83246049       0.96398317       0.03886521
H       -0.50448525      -0.99581992      -0.35035728
H        1.94679478      -0.99992543      -0.36671346
H        3.32145287       1.05029194       0.16064472
H        1.78166210       1.94593468      -0.04272838
H        1.94100748       0.42477334       2.39691884
H        1.91529264       2.08585275       2.36291149
H       -0.54223069       2.03465968       2.17736674
H       -0.47449065       0.22930319       2.56442527
