16
Properties=species:S:1:pos:R:3 energy:=T -17.817532948576=T gnorm:=T 0.000396279826=T xtb:=T 6.7.1=T (edcfbbe)=T pbc="F F F"
C       -0.77653896       1.03594176      -0.07782390
C        0.08142419      -0.04364710      -0.25003299
C        1.43788826      -0.15024747      -0.25526278
C        2.15415184       1.00479011      -0.05554945
C        1.35103293       1.30011410       2.33508402
C        0.16114707       1.21212926       2.47731844
H       -0.26342115       1.95471032      -0.07077207
H       -1.76134121       0.94646178       0.00676853
H       -0.56670267      -1.12950758      -0.34849509
H        2.01325293      -1.07403988      -0.43173849
H        3.29960110       0.96295931       0.03524519
H        1.78412949       1.89057947       0.05944410
H        1.93445249       0.41610396       2.43368357
H        1.98906054       2.13050026       2.31081725
H       -0.43949651       2.23670750       2.34042052
H       -0.45560690       0.27795647       2.51507652
