16
Properties=species:S:1:pos:R:3 energy:=T -17.822313566467=T gnorm:=T 0.000397917922=T xtb:=T 6.7.1=T (edcfbbe)=T pbc="F F F"
C       -0.83297959       0.95819541      -0.22773136
C       -0.04318817      -0.14062928      -0.34849140
C        1.55851746      -0.09957804      -0.31146301
C        2.24458167       1.14235738      -0.32382677
C        1.44938053       1.19390879       2.61699445
C        0.07134544       1.42089614       2.60833691
H       -0.46804458       2.07028383      -0.20820979
H       -1.85615882       0.92247159      -0.21375788
H       -0.45885698      -1.02829614      -0.38796413
H        1.96361980      -1.06359658      -0.44566389
H        3.25978658       0.95382973      -0.22103326
H        1.87017888       2.03172531      -0.07994339
H        1.97479687       0.38766221       2.67055703
H        1.91114537       2.15332214       2.51375432
H       -0.46098904       2.10146253       2.57905792
H       -0.61917246       0.29333769       2.71444123
