16
Properties=species:S:1:pos:R:3 energy:=T -17.822885844677=T gnorm:=T 0.000351651283=T xtb:=T 6.7.1=T (edcfbbe)=T pbc="F F F"
C       -0.79514153       0.93358273      -0.27403402
C        0.02254332      -0.09205741      -0.33489737
C        1.41891349      -0.03502378      -0.42313652
C        2.27078917       0.95122178      -0.23967314
C        1.40565320       1.33416105       2.72336694
C        0.05351486       1.30522973       2.62963258
H       -0.43076480       2.05447092      -0.24120378
H       -1.80002856       0.90392035      -0.28355069
H       -0.48430553      -1.11386749      -0.51079841
H        1.89174340      -1.07370502      -0.45880358
H        3.14463647       0.82153453      -0.33705669
H        1.86271507       1.97582704      -0.30669796
H        1.85156094       0.45254531       2.78560442
H        2.04768313       2.25051124       2.70318217
H       -0.52348086       2.18083601       2.63356928
H       -0.48149961       0.35407925       2.86529457
