16
Properties=species:S:1:pos:R:3 energy:=T -17.813738202088=T gnorm:=T 0.000438383854=T xtb:=T 6.7.1=T (edcfbbe)=T pbc="F F F"
C       -0.72896396       1.03962448       0.08993584
C        0.01544806      -0.01263574      -0.38420490
C        1.45103912      -0.08142733      -0.26787567
C        2.01749285       0.96923491       0.09352144
C        1.51503551       1.14830612       2.14077940
C        0.03906469       1.23910376       2.17026654
H       -0.30749891       1.92498315       0.04860129
H       -1.77360919       0.95662013       0.38823373
H       -0.50230238      -1.08974631      -0.45661516
H        2.03613228      -1.02905732      -0.44471982
H        3.22183543       0.94654535       0.29046317
H        1.82389995       2.04121490      -0.02089569
H        1.91075886       0.25948345       2.51107834
H        1.99219996       2.15693743       2.30842000
H       -0.45523289       2.08132419       2.27228156
H       -0.53714038       0.22494295       2.51846265
