16
Properties=species:S:1:pos:R:3 energy:=T -17.822687320067=T gnorm:=T 0.000356470142=T xtb:=T 6.7.1=T (edcfbbe)=T pbc="F F F"
C       -0.80955813       1.06588469      -0.25676517
C        0.04227140      -0.16528754      -0.29167363
C        1.35661668      -0.05233387      -0.26417683
C        2.36820689       1.04040827      -0.21113331
C        1.35303062       1.22934377       2.78275062
C        0.07665457       1.25295942       2.61081206
H       -0.36580680       2.04748085      -0.26639805
H       -1.87991778       1.02680138      -0.25388649
H       -0.46855869      -1.12016281      -0.45824859
H        1.90268268      -0.95313142      -0.45762651
H        3.43571334       0.85959551      -0.28959667
H        1.90205885       1.98843729      -0.26882330
H        1.95541976       0.38111974       2.66754587
H        1.94918900       2.16443136       2.60730799
H       -0.44673806       2.13385182       2.60993543
H       -0.49172722       0.39981492       2.76716459
