16
Properties=species:S:1:pos:R:3 energy:=T -17.820713068479=T gnorm:=T 0.000405323679=T xtb:=T 6.7.1=T (edcfbbe)=T pbc="F F F"
C       -0.89527033       1.03149328      -0.27773726
C       -0.03239555      -0.01867964      -0.39365524
C        1.36658361      -0.08509753      -0.22102598
C        2.31201824       0.97852719      -0.09124665
C        1.42365530       1.26728368       2.54939904
C        0.03900898       1.29411150       2.58449828
H       -0.22554714       2.04951770      -0.20432335
H       -1.89518181       0.94505296      -0.11166693
H       -0.54589260      -1.04426878      -0.40970735
H        1.92050124      -1.04342515      -0.34611466
H        3.37773902       0.96241857      -0.17036789
H        1.78663465       1.97084916      -0.08529346
H        1.94286256       0.32878489       2.58928206
H        2.01368527       2.20701670       2.51278699
H       -0.50087876       2.18734243       2.42002860
H       -0.54485890       0.31921162       2.66429056
