16
Properties=species:S:1:pos:R:3 energy:=T -17.812259918842=T gnorm:=T 0.000930443810=T xtb:=T 6.7.1=T (edcfbbe)=T pbc="F F F"
C       -0.59870589       0.97474315       0.07848705
C       -0.05746628      -0.07066051      -0.28304865
C        1.47506425       0.09026605      -0.18372555
C        2.21974792       0.99967404       0.05786482
C        1.39130903       1.17579398       2.30118283
C        0.05761175       1.26165576       2.24469870
H       -0.28945059       2.12681329       0.00063730
H       -1.71188258       0.89578344       0.17597104
H       -0.48637312      -0.98798549      -0.36510408
H        1.89639346      -0.99670053      -0.37509685
H        3.14764095       0.94826891       0.26049049
H        1.73298758       2.08854545       0.02504890
H        1.97582137       0.36438972       2.44056678
H        2.01410835       2.06670011       2.22857040
H       -0.45621051       2.08673790       2.42262938
H       -0.46367296       0.39398580       2.55134888
