16
Properties=species:S:1:pos:R:3 energy:=T -17.819328002362=T gnorm:=T 0.000336922030=T xtb:=T 6.7.1=T (edcfbbe)=T pbc="F F F"
C       -0.87134772       1.03999049      -0.10315529
C        0.01785619      -0.02187177      -0.26807935
C        1.39717549      -0.05742815      -0.29668615
C        2.18877890       1.00107811      -0.12260109
C        1.35138546       1.22844775       2.49122929
C        0.21559554       1.19535710       2.51091916
H       -0.45132022       2.11348889      -0.07331208
H       -1.81829156       1.01921075       0.00992557
H       -0.55759109      -0.99657824      -0.40099492
H        1.96775936      -1.02419186      -0.33490703
H        3.31784696       0.92203301       0.02290667
H        1.71516751       1.97473792      -0.11600130
H        1.95436720       0.31498658       2.58041915
H        1.93334983       2.13059872       2.30482053
H       -0.49956235       2.18399257       2.37669291
H       -0.53933627       0.30030025       2.70575031
