16
Properties=species:S:1:pos:R:3 energy:=T -17.822313566467=T gnorm:=T 0.000397917922=T xtb:=T 6.7.1=T (edcfbbe)=T pbc="F F F"
C       -0.78530869       0.90498481      -0.22117266
C        0.06491280      -0.02688198      -0.37266309
C        1.42723438      -0.13164037      -0.29908456
C        2.32284808       0.97727786      -0.32434163
C        1.40515084       1.29942824       2.49164125
C        0.08415841       1.38262659       2.69396599
H       -0.34064439       2.02733458      -0.10493075
H       -1.89756245       0.87541873      -0.19541055
H       -0.48934982      -1.02712600      -0.51686388
H        1.96352012      -0.99352325      -0.40513011
H        3.32321023       1.01626672      -0.28053285
H        1.78992592       1.94191858      -0.18984981
H        1.90651123       0.35155344       2.69449369
H        1.88327458       2.08063481       2.64476361
H       -0.49995749       2.15620626       2.57710100
H       -0.49899150       0.39264539       2.76377470
