16
Properties=species:S:1:pos:R:3 energy:=T -17.819328002362=T gnorm:=T 0.000336922030=T xtb:=T 6.7.1=T (edcfbbe)=T pbc="F F F"
C       -0.74288696       1.03342818      -0.11599099
C       -0.01868006      -0.11646526      -0.19731776
C        1.35347830      -0.04403104      -0.29356312
C        2.20873579       0.91336156      -0.17343198
C        1.45623439       1.20874359       2.52913420
C        0.11523247       1.28699958       2.52191561
H       -0.42545944       1.97529477      -0.00874376
H       -1.90539243       1.03388447      -0.09221171
H       -0.45921447      -1.09765615      -0.36291793
H        1.88019861      -1.04954647      -0.45537027
H        3.37105763       0.83129697      -0.03010160
H        1.83564435       2.03134593      -0.11317697
H        2.02776141       0.40374086       2.60038063
H        1.98620349       2.15313900       2.45710532
H       -0.54744321       2.19694275       2.44256732
H       -0.58092565       0.18325844       2.58337849
