16
Properties=species:S:1:pos:R:3 energy:=T -17.815412885497=T gnorm:=T 0.000359351609=T xtb:=T 6.7.1=T (edcfbbe)=T pbc="F F F"
C       -0.64945782       1.07007149      -0.05760512
C       -0.12997665      -0.05316990      -0.35136141
C        1.37244020      -0.14677146      -0.32049549
C        2.19112111       1.01387405       0.10733490
C        1.33028721       1.24161886       2.29378856
C        0.01291361       1.24605467       2.38985770
H       -0.40353105       2.07496023      -0.06690575
H       -1.74862974       0.93659951       0.11696211
H       -0.42744220      -1.04491520      -0.35051385
H        1.85313697      -1.10352398      -0.39877283
H        3.35388302       0.89638167       0.02988731
H        1.89598229       2.01120144      -0.01324364
H        1.90296719       0.34188655       2.55398012
H        1.96409945       2.20087751       2.35711888
H       -0.43630998       2.20449767       2.33039927
H       -0.44312874       0.44272847       2.53722815
