16
Properties=species:S:1:pos:R:3 energy:=T -17.821683480713=T gnorm:=T 0.000421170293=T xtb:=T 6.7.1=T (edcfbbe)=T pbc="F F F"
C       -0.71034368       1.03662511      -0.14559245
C        0.04580986       0.03724989      -0.34924965
C        1.46805691      -0.02780555      -0.25499580
C        2.11523399       0.98192039      -0.19469163
C        1.34260057       1.29914716       2.60015634
C        0.05594270       1.17484384       2.52286710
H       -0.41614073       2.02690228      -0.18218075
H       -1.94397793       0.85329414      -0.19806688
H       -0.36765481      -0.91410923      -0.42339091
H        1.96881013      -0.96924886      -0.33489218
H        3.30444456       0.86086012      -0.19286992
H        1.74347179       2.01608427      -0.08215717
H        1.86945445       0.34537086       2.69778613
H        2.02895605       2.23593092       2.55831089
H       -0.53076046       2.14843257       2.57851707
H       -0.52469620       0.34588191       2.76135186
