16
Properties=species:S:1:pos:R:3 energy:=T -17.817532948576=T gnorm:=T 0.000396279826=T xtb:=T 6.7.1=T (edcfbbe)=T pbc="F F F"
C       -0.76119692       0.98705574      -0.01048963
C       -0.06963240       0.00473085      -0.21972938
C        1.44106146      -0.14422032      -0.45115467
C        2.20985864       0.96158027      -0.04761850
C        1.32450024       1.24742073       2.41578334
C        0.07326773       1.26700056       2.44022079
H       -0.27321658       1.95185755       0.02272344
H       -1.80606390       0.90656721      -0.06683641
H       -0.35728948      -1.01535671      -0.41592700
H        1.93321771      -1.03147763      -0.41631726
H        3.19220459       0.94614169      -0.00918901
H        1.79099001       2.07408223      -0.11733846
H        1.89833026       0.35288759       2.60938817
H        2.00943609       2.21051827       2.22380995
H       -0.46256643       2.18918432       2.42251572
H       -0.54102415       0.37706668       2.62111681
