16
Properties=species:S:1:pos:R:3 energy:=T -17.815412885497=T gnorm:=T 0.000359351609=T xtb:=T 6.7.1=T (edcfbbe)=T pbc="F F F"
C       -0.67308256       0.96617973      -0.05095724
C        0.11035508      -0.02491667      -0.30021550
C        1.35097846      -0.10522985      -0.30318601
C        2.19659035       1.02104021      -0.02406642
C        1.45524542       1.18144684       2.34965508
C        0.03478394       1.27854887       2.37241117
H       -0.29215586       2.01064154       0.17083225
H       -1.77030050       0.90031660       0.06233498
H       -0.48205030      -0.99272542      -0.33192924
H        1.94789354      -1.03903103      -0.41296780
H        3.35246983       0.99342376      -0.08215011
H        1.80172175       1.96578417      -0.03316619
H        2.04640174       0.28106288       2.46700728
H        2.08796913       2.13218713       2.32557828
H       -0.44108979       2.13077849       2.33930293
H       -0.48172855       0.40776580       2.43916749
