16
Properties=species:S:1:pos:R:3 energy:=T -17.820307793211=T gnorm:=T 0.000596792534=T xtb:=T 6.7.1=T (edcfbbe)=T pbc="F F F"
C       -0.71211626       1.02404738       0.25195790
C       -0.00737711      -0.16584547      -0.22553532
C        1.41914856      -0.08091781      -0.24957543
C        2.19785980       1.03767043       0.03578117
C        1.42280599       1.22131805       2.08498019
C       -0.02463892       1.25720600       2.16660002
H       -0.37341888       2.04895758      -0.08270752
H       -1.81506788       0.93054268       0.19494262
H       -0.52700766      -1.00042981      -0.49565086
H        1.87395867      -0.99599508      -0.48308418
H        3.19373557       0.93186615       0.26197029
H        1.81264051       1.99104731      -0.13563165
H        1.92320531       0.41032080       2.55985604
H        1.94999636       2.22361724       2.34960117
H       -0.54563253       2.24007922       2.47134462
H       -0.45908360       0.24839617       2.59307528
