16
Properties=species:S:1:pos:R:3 energy:=T -17.822956346966=T gnorm:=T 0.000685981590=T xtb:=T 6.7.1=T (edcfbbe)=T pbc="F F F"
C       -0.78478690       1.00512931      -0.43988242
C        0.02848292      -0.10746262      -0.34891477
C        1.45408679      -0.02741053      -0.32730837
C        2.26959892       0.95004598      -0.44528096
C        1.49936608       1.26079597       2.78158798
C        0.08566686       1.25594941       2.87499757
H       -0.37983225       2.00434475      -0.35942187
H       -1.82074611       0.85306876      -0.31622200
H       -0.35573068      -1.14175436      -0.59093920
H        1.95552608      -0.89485569      -0.50210261
H        3.24339503       0.95146196      -0.40755996
H        1.82121134       1.98241195      -0.28385887
H        1.93944378       0.37450221       2.89534629
H        1.91406279       2.15752952       2.68178897
H       -0.49487011       2.10880486       2.67316053
H       -0.40570977       0.35445030       2.90278916
