16
Properties=species:S:1:pos:R:3 energy:=T -17.813738202088=T gnorm:=T 0.000438383854=T xtb:=T 6.7.1=T (edcfbbe)=T pbc="F F F"
C       -0.70212017       1.03207594       0.15214819
C        0.04179519       0.03403913      -0.21725898
C        1.45481066       0.01560766      -0.27534633
C        2.20828675       1.04101789       0.10767724
C        1.36959410       1.18390606       2.21523842
C        0.08239359       1.09772303       2.18667800
H       -0.27151098       2.01522263      -0.11038858
H       -1.81026022       1.05629581       0.14067281
H       -0.48526337      -0.96344865      -0.51599826
H        1.98497191      -1.10799760      -0.33416560
H        3.38961256       0.87764592       0.23239205
H        1.80867108       1.98895459      -0.01161065
H        1.91809709       0.30185837       2.44215033
H        1.96262769       2.17967800       2.35461471
H       -0.49448092       2.08596016       2.26626050
H       -0.51475250       0.31212999       2.52663071
