16
Properties=species:S:1:pos:R:3 energy:=T -17.822956346966=T gnorm:=T 0.000685981590=T xtb:=T 6.7.1=T (edcfbbe)=T pbc="F F F"
C       -0.71962662       0.84319838      -0.35101301
C       -0.08710278      -0.00252563      -0.39128306
C        1.49404935      -0.13080529      -0.29334536
C        2.36554231       0.94032762      -0.33148661
C        1.35335395       1.26615256       2.74867512
C        0.18705865       1.21038451       2.80587274
H       -0.35230816       1.96531361      -0.33021792
H       -1.88246030       0.90787284      -0.42563717
H       -0.47395251      -1.06152669      -0.46111347
H        1.92147276      -1.06660711      -0.39699353
H        3.30015213       0.90769612      -0.39580596
H        1.82083084       1.92892749      -0.28550913
H        1.89662098       0.31366024       2.92723907
H        1.98901618       2.15331694       2.62029518
H       -0.47046029       2.19224830       2.65610350
H       -0.44859683       0.31631880       2.83962653
