16
Properties=species:S:1:pos:R:3 energy:=T -17.813738202088=T gnorm:=T 0.000438383854=T xtb:=T 6.7.1=T (edcfbbe)=T pbc="F F F"
C       -0.70306155       0.99136140       0.10504199
C        0.06840691       0.00945310      -0.35714164
C        1.41985668      -0.18509032      -0.17857368
C        2.23086932       1.05126453       0.18845993
C        1.47018137       1.18251554       2.24799529
C        0.11957307       1.26845177       2.20037898
H       -0.33547375       2.16049181      -0.03266901
H       -1.72150552       0.86594828       0.27302340
H       -0.45509960      -1.06932696      -0.32280706
H        1.93964034      -0.97953194      -0.37210789
H        3.18240279       0.96656680       0.31471198
H        1.71660864       1.95780964      -0.10296766
H        2.00126587       0.30462008       2.50511133
H        2.02968373       2.08005650       2.37933448
H       -0.49010044       2.13656532       2.38264989
H       -0.46014644       0.25387599       2.48405447
