16
Properties=species:S:1:pos:R:3 energy:=T -17.815412885497=T gnorm:=T 0.000359351609=T xtb:=T 6.7.1=T (edcfbbe)=T pbc="F F F"
C       -0.77885958       1.00574049       0.03926556
C       -0.01920434      -0.03601662      -0.31256130
C        1.43136093       0.00924743      -0.29706952
C        2.36710274       1.03310637       0.05138982
C        1.44124998       1.15516825       2.27953749
C        0.09718453       1.18025575       2.33481105
H       -0.34830754       1.95744552       0.05242877
H       -1.76095090       0.94905241       0.09555209
H       -0.51096634      -0.97992874      -0.42577031
H        2.01741879      -1.06579035      -0.40930482
H        3.33918663       0.97550748       0.01112669
H        1.83317704       2.00848384      -0.01243730
H        1.99802164       0.37261988       2.57635055
H        1.99415705       2.17486544       2.33247534
H       -0.41367122       2.11333728       2.44460659
H       -0.37179284       0.45924661       2.51210174
