16
Properties=species:S:1:pos:R:3 energy:=T -17.820307793211=T gnorm:=T 0.000596792534=T xtb:=T 6.7.1=T (edcfbbe)=T pbc="F F F"
C       -0.55409905       0.98918555       0.21501253
C       -0.00107154      -0.12434253      -0.39118056
C        1.42026905      -0.00501876      -0.20369593
C        2.17231259       1.01164414       0.23339646
C        1.54298931       1.17239251       2.16894484
C        0.03173489       1.18012518       2.07924730
H       -0.37247312       2.02316636      -0.07458296
H       -1.73109081       1.02623323       0.22862764
H       -0.55492909      -1.09119806      -0.39969994
H        1.91310393      -1.12029443      -0.36681285
H        3.29674938       0.95789119       0.31147739
H        1.70383041       1.92851563      -0.08031036
H        1.96323006       0.33069333       2.48775371
H        1.91413890       2.24167300       2.25510952
H       -0.49144214       2.21662801       2.24493297
H       -0.47126266       0.33558547       2.54409631
