16
Properties=species:S:1:pos:R:3 energy:=T -17.822885844677=T gnorm:=T 0.000351651283=T xtb:=T 6.7.1=T (edcfbbe)=T pbc="F F F"
C       -0.71094443       1.12121974      -0.33838933
C        0.07857405      -0.11955468      -0.43729065
C        1.41998251      -0.13232253      -0.31145945
C        2.30669992       1.09032030      -0.31403118
C        1.41166023       1.22542754       2.68624873
C        0.10674631       1.28227293       2.68920600
H       -0.33942969       1.88716448      -0.27591073
H       -1.89008787       0.88351174      -0.38378542
H       -0.38471979      -1.00894363      -0.34868128
H        1.92742057      -1.13404008      -0.45353187
H        3.23781997       0.94903642      -0.23061753
H        1.86992544       1.96295799      -0.28963966
H        1.97697729       0.25590111       2.84836332
H        1.97786282       2.13676206       2.66068644
H       -0.48521700       2.11812325       2.63342050
H       -0.44321565       0.36758443       2.95066011
