16
Properties=species:S:1:pos:R:3 energy:=T -17.817532948576=T gnorm:=T 0.000396279826=T xtb:=T 6.7.1=T (edcfbbe)=T pbc="F F F"
C       -0.65228091       0.99133229      -0.04096381
C        0.07991268      -0.02792357      -0.28129325
C        1.44553165      -0.12482308      -0.24236807
C        2.27900983       1.14191274      -0.08633118
C        1.43584925       1.24562706       2.49381161
C        0.06698020       1.20961045       2.32141605
H       -0.29819253       2.01559535       0.03895427
H       -1.84916884       1.08738873      -0.03933322
H       -0.42777994      -1.00744577      -0.31555076
H        1.91862572      -1.08540234      -0.43802246
H        3.33502859       0.94170494       0.02213868
H        1.76266485       2.01424405      -0.01422148
H        2.00000914       0.25600767       2.50677938
H        2.06829587       2.13712742       2.37023296
H       -0.52036212       2.07253683       2.31216852
H       -0.47223704       0.30227155       2.67039815
