16
Properties=species:S:1:pos:R:3 energy:=T -17.820713068479=T gnorm:=T 0.000405323679=T xtb:=T 6.7.1=T (edcfbbe)=T pbc="F F F"
C       -0.79210667       1.03305007      -0.19567612
C        0.00170843      -0.05051244      -0.29401216
C        1.47762873      -0.11681611      -0.41344150
C        2.21002542       0.95556102      -0.18271174
C        1.52232849       1.32365544       2.52137087
C       -0.01036564       1.17690339       2.55332444
H       -0.29604678       1.98679698      -0.07418812
H       -1.81995433       0.99222053      -0.22704826
H       -0.44387114      -1.01292445      -0.33500827
H        1.94682504      -1.10273802      -0.42627741
H        3.21425747       0.94019048      -0.10343012
H        1.86033490       1.94617765      -0.15026225
H        2.05528960       0.35727495       2.73950290
H        1.99289942       2.07771304       2.51355403
H       -0.42302405       2.13803960       2.35075319
H       -0.45467450       0.33807422       2.65194181
