16
Properties=species:S:1:pos:R:3 energy:=T -17.822956346966=T gnorm:=T 0.000685981590=T xtb:=T 6.7.1=T (edcfbbe)=T pbc="F F F"
C       -0.87572424       0.98702906      -0.41594475
C        0.07976920      -0.05769754      -0.34538804
C        1.47130749      -0.04921574      -0.45707513
C        2.29405759       1.13049470      -0.37557772
C        1.35076844       1.25627935       2.78898604
C        0.02686258       1.27741518       2.80257737
H       -0.27920828       2.00352560      -0.29298663
H       -1.78127480       0.89428276      -0.25406217
H       -0.49326723      -1.10700654      -0.46756552
H        1.90994234      -1.14931870      -0.44392757
H        3.20022138       1.01510235      -0.36237266
H        1.80607698       1.93869524      -0.34354435
H        1.94809521       0.28311768       2.84040998
H        1.95191245       2.13975433       2.80642950
H       -0.41406444       2.17808075       2.77321249
H       -0.58931738       0.40316188       2.90387439
