16
Properties=species:S:1:pos:R:3 energy:=T -17.822687320067=T gnorm:=T 0.000356470142=T xtb:=T 6.7.1=T (edcfbbe)=T pbc="F F F"
C       -0.66196882       0.93987933      -0.17569608
C       -0.05394392      -0.07693928      -0.32826348
C        1.61155095       0.00055348      -0.38460029
C        2.33802183       0.99067757      -0.32776349
C        1.42627449       1.26834358       2.77460015
C        0.03631864       1.28936219       2.75125612
H       -0.35549629       2.00231530      -0.26451984
H       -1.77998771       0.93151120      -0.22944868
H       -0.47499424      -1.04343463      -0.49285825
H        1.92560266      -0.98838238      -0.41013404
H        3.37901583       0.94438760      -0.16596015
H        1.83193206       1.88453344      -0.18184046
H        1.95211840       0.27991754       2.82955212
H        1.98509623       2.20430735       2.60989372
H       -0.48132747       2.19035595       2.76409519
H       -0.54428693       0.35047168       2.80853093
