16
Properties=species:S:1:pos:R:3 energy:=T -17.821683480713=T gnorm:=T 0.000421170293=T xtb:=T 6.7.1=T (edcfbbe)=T pbc="F F F"
C       -0.78840851       0.90962811      -0.10903993
C        0.07322910      -0.08466159      -0.22133207
C        1.51096200      -0.14584017      -0.33698573
C        2.21097439       1.00488872      -0.16709185
C        1.35139361       1.24753639       2.63314074
C        0.07497047       1.24259962       2.57274285
H       -0.36943618       1.87891951      -0.10617363
H       -1.90563087       0.93731494      -0.26369257
H       -0.38517241      -1.01939466      -0.48639226
H        1.94161112      -1.08664497      -0.27358501
H        3.34754201       0.87644535      -0.14906985
H        1.83874073       2.08920240      -0.09275783
H        2.00328099       0.27682710       2.74101279
H        2.11212044       2.21432549       2.51998843
H       -0.48078156       2.10709460       2.53527487
H       -0.56391676       0.35554215       2.66153226
