16
Properties=species:S:1:pos:R:3 energy:=T -17.822885844677=T gnorm:=T 0.000351651283=T xtb:=T 6.7.1=T (edcfbbe)=T pbc="F F F"
C       -0.81764028       1.02907510      -0.32875947
C        0.14707812       0.02709986      -0.38814106
C        1.44475683       0.01937453      -0.47284820
C        2.22181612       1.05318904      -0.35863073
C        1.36904148       1.24642491       2.79703776
C        0.08372549       1.28467081       2.79371945
H       -0.37719462       2.06043221      -0.30089881
H       -1.92068113       0.82884104      -0.39335076
H       -0.47659029      -0.99464260      -0.41926589
H        1.88828033      -1.10122654      -0.45494115
H        3.29729877       0.89036563      -0.38378384
H        1.82455929       2.05569660      -0.37429466
H        1.95198208       0.24623445       2.84862090
H        1.92760521       2.06849435       2.69492829
H       -0.40329176       2.17991226       2.74880006
H       -0.49785060       0.24441705       2.86423562
