16
Properties=species:S:1:pos:R:3 energy:=T -17.815412885497=T gnorm:=T 0.000359351609=T xtb:=T 6.7.1=T (edcfbbe)=T pbc="F F F"
C       -0.86389293       1.00893690       0.02185214
C        0.05676694      -0.02781642      -0.16973022
C        1.46900359      -0.00477534      -0.24081159
C        2.11884956       0.96980610       0.10549677
C        1.38455032       1.23798187       2.29128527
C        0.05073123       1.16804649       2.33106530
H       -0.29854236       1.96179821      -0.04801495
H       -1.72926559       0.96568258       0.09322959
H       -0.40468459      -1.05960122      -0.40036494
H        1.81489528      -0.98746909      -0.39008287
H        3.27404801       0.87812218       0.09904965
H        1.83468652       2.01867016      -0.10270528
H        1.91616185       0.33624616       2.47249508
H        1.98881641       2.21298154       2.29553149
H       -0.50736406       2.11808376       2.39584026
H       -0.44320109       0.48766820       2.51992988
