16
Properties=species:S:1:pos:R:3 energy:=T -17.822885844677=T gnorm:=T 0.000351651283=T xtb:=T 6.7.1=T (edcfbbe)=T pbc="F F F"
C       -0.86689721       0.94148637      -0.31878482
C        0.02432977      -0.03132219      -0.39458541
C        1.51018274      -0.08066056      -0.41311699
C        2.28809558       0.95837272      -0.45127690
C        1.33928037       1.26904252       2.60667681
C        0.05856201       1.24735362       2.69087914
H       -0.45419180       1.98051551      -0.29175133
H       -1.78363913       0.93811921      -0.39155402
H       -0.49215860      -1.01102692      -0.33157814
H        1.93833978      -1.03110218      -0.33336017
H        3.31663441       0.90331276      -0.38302027
H        1.82259226       2.11499040      -0.33629667
H        1.96476504       0.28221190       2.84587048
H        2.01073945       2.16195802       2.72700030
H       -0.45884253       2.19714401       2.77720612
H       -0.45456873       0.33840904       2.80467670
