16
Properties=species:S:1:pos:R:3 energy:=T -17.820713068479=T gnorm:=T 0.000405323679=T xtb:=T 6.7.1=T (edcfbbe)=T pbc="F F F"
C       -0.64207952       0.90993522      -0.21099871
C       -0.03449111      -0.11825182      -0.29513839
C        1.47061622       0.04822094      -0.24493736
C        2.30262171       1.03315764      -0.14940933
C        1.35511613       1.16680291       2.48138587
C        0.05310585       1.29869110       2.43399082
H       -0.43903003       2.01683413      -0.14303733
H       -1.81559274       0.90482880      -0.15845103
H       -0.53045863      -1.04247662      -0.43387928
H        1.88770592      -1.07400509      -0.38076180
H        3.31381644       0.82924709      -0.12421701
H        1.85295415       2.06435018      -0.03679955
H        1.97647012       0.28010011       2.59068797
H        2.01977463       2.12412945       2.52508802
H       -0.42273963       2.10326847       2.49110785
H       -0.50085232       0.46413642       2.68402893
