16
Properties=species:S:1:pos:R:3 energy:=T -17.813369164842=T gnorm:=T 0.000460668107=T xtb:=T 6.7.1=T (edcfbbe)=T pbc="F F F"
C       -0.69863830       0.98866730       0.00733056
C        0.12745227      -0.00189773      -0.33977196
C        1.53648448      -0.10425803      -0.23506853
C        2.07601383       0.99398649       0.01196899
C        1.38137806       1.13257062       2.18960123
C        0.06373820       1.27212209       2.31220344
H       -0.34284877       1.91514362      -0.02932362
H       -1.82554473       0.89644387       0.13579429
H       -0.45331139      -1.00072456      -0.39707726
H        1.87875826      -1.03869924      -0.40055963
H        3.15333948       0.91997625       0.01913468
H        1.66323969       1.95850796      -0.05311693
H        2.00519141       0.31327043       2.52821321
H        2.05680126       2.15841581       2.33156768
H       -0.54227910       2.20284676       2.31118928
H       -0.49008604       0.26143907       2.43535021
