16
Properties=species:S:1:pos:R:3 energy:=T -17.822687320067=T gnorm:=T 0.000356470142=T xtb:=T 6.7.1=T (edcfbbe)=T pbc="F F F"
C       -0.78816962       1.04224216      -0.31636964
C        0.04558588      -0.13984179      -0.45491766
C        1.39147275      -0.15154334      -0.35655309
C        2.22573104       1.02262326      -0.32432354
C        1.52465204       1.25574240       2.70170358
C        0.09946426       1.24807818       2.67132633
H       -0.37211771       2.05138312      -0.17965107
H       -1.79796666       0.89148962      -0.30667051
H       -0.34600777      -1.05745679      -0.39279197
H        1.95701051      -0.97129511      -0.48767395
H        3.29059464       0.89838411      -0.28200978
H        1.72005148       1.99886255      -0.36423203
H        1.97910329       0.37855152       2.81237370
H        1.90270526       2.22075466       2.58887133
H       -0.55992318       2.12038390       2.58975933
H       -0.48575184       0.39358057       2.67241829
