16
Properties=species:S:1:pos:R:3 energy:=T -17.822956346966=T gnorm:=T 0.000685981590=T xtb:=T 6.7.1=T (edcfbbe)=T pbc="F F F"
C       -0.74745136       1.09865376      -0.48961700
C        0.02388259      -0.13358601      -0.36585097
C        1.38330912      -0.09754720      -0.38909766
C        2.28300472       1.00759962      -0.40080179
C        1.36002972       1.32033873       2.82300286
C       -0.02358514       1.31791152       2.84818363
H       -0.32975504       1.98341796      -0.26666907
H       -1.91254774       0.94976849      -0.38586121
H       -0.40786499      -0.98929596      -0.48535915
H        1.91507091      -1.04699272      -0.37041222
H        3.36162957       0.84297815      -0.32927799
H        1.89636260       2.13028569      -0.41633882
H        1.93199980       0.43724474       2.82516438
H        1.89367399       2.20778304       2.80019410
H       -0.53517852       2.20917756       2.74639655
H       -0.40338184       0.35758388       2.96516461
