16
Properties=species:S:1:pos:R:3 energy:=T -17.819328002362=T gnorm:=T 0.000336922030=T xtb:=T 6.7.1=T (edcfbbe)=T pbc="F F F"
C       -0.76600446       1.09678039      -0.09340795
C       -0.02358618      -0.15979950      -0.29840252
C        1.41618671      -0.14139006      -0.30070431
C        2.30009630       1.01626037      -0.17262142
C        1.41933270       1.17278298       2.36219217
C        0.10945138       1.21200471       2.55482191
H       -0.32882478       1.94670884      -0.03474904
H       -1.73509315       0.91808396      -0.13376905
H       -0.50260500      -1.09285303      -0.46992479
H        1.83278561      -1.00441307      -0.30598573
H        3.27192017       0.98792398       0.00717856
H        1.94160221       1.99110460      -0.07546426
H        1.99438546       0.35146084       2.61219171
H        2.05978845       2.13208483       2.43308664
H       -0.56720894       2.15143412       2.36940672
H       -0.54849571       0.32878697       2.55862133
