16
Properties=species:S:1:pos:R:3 energy:=T -17.820307793211=T gnorm:=T 0.000596792534=T xtb:=T 6.7.1=T (edcfbbe)=T pbc="F F F"
C       -0.68319501       0.86741095       0.24461627
C        0.03592124      -0.16785489      -0.28494206
C        1.39465822      -0.05032061      -0.17520570
C        2.09976316       1.03627661       0.13958559
C        1.40197946       1.24306924       2.22925071
C        0.05689053       1.19908996       2.17820559
H       -0.30887241       2.05677633      -0.11777896
H       -1.73292445       1.02835163       0.27245874
H       -0.42813940      -1.01834141      -0.42075868
H        1.90978962      -0.87643862      -0.36485502
H        3.26832560       1.00408437       0.22090646
H        1.75297599       2.00736186      -0.17380940
H        1.90538086       0.38383494       2.39979501
H        1.90852052       2.14688245       2.30349360
H       -0.48496854       2.11401320       2.35327146
H       -0.59768307       0.36317378       2.43043858
