16
Properties=species:S:1:pos:R:3 energy:=T -17.822956346966=T gnorm:=T 0.000685981590=T xtb:=T 6.7.1=T (edcfbbe)=T pbc="F F F"
C       -0.74553408       0.97774989      -0.36725423
C        0.03394427      -0.05094929      -0.47110791
C        1.51195348      -0.10358173      -0.46488329
C        2.19208329       0.97958420      -0.25534711
C        1.32218191       1.27719590       2.69441441
C        0.07682701       1.32179976       2.80906636
H       -0.41984093       2.01747197      -0.27388053
H       -1.80919254       1.03469091      -0.34397710
H       -0.48384092      -1.05691961      -0.44579986
H        1.92468596      -1.05112868      -0.43093251
H        3.21845957       0.96578558      -0.39125093
H        1.78114361       2.04197417      -0.23667224
H        1.99374555       0.36737436       2.84983287
H        2.13843308       2.23000050       2.67070281
H       -0.54227940       2.18218254       2.64566091
H       -0.48386687       0.32999123       2.98000440
