16
Properties=species:S:1:pos:R:3 energy:=T -17.822687320067=T gnorm:=T 0.000356470142=T xtb:=T 6.7.1=T (edcfbbe)=T pbc="F F F"
C       -0.80070459       0.96120366      -0.23779200
C       -0.02698262      -0.01771810      -0.42174337
C        1.46205949      -0.11362175      -0.36923810
C        2.22090123       0.94163578      -0.23399684
C        1.32220896       1.20513842       2.75398619
C        0.13034069       1.29803630       2.72296575
H       -0.24849207       1.93528026      -0.25634592
H       -1.90310131       0.97113361      -0.25049774
H       -0.38768619      -0.99053604      -0.43056970
H        1.87227511      -1.10119845      -0.29322774
H        3.36975582       0.95402940      -0.28572886
H        1.83381600       1.98421305      -0.23257741
H        1.82794056       0.34692127       2.75951788
H        1.98124503       2.18269616       2.68147249
H       -0.49730488       2.21582863       2.48912027
H       -0.55709684       0.44766787       2.71240386
