16
Properties=species:S:1:pos:R:3 energy:=T -17.813738202088=T gnorm:=T 0.000438383854=T xtb:=T 6.7.1=T (edcfbbe)=T pbc="F F F"
C       -0.70281827       1.12600875       0.18098250
C        0.03211001      -0.08827942      -0.32346495
C        1.39575797      -0.05068430      -0.36431718
C        2.20720534       1.06237031       0.10987139
C        1.46057077       1.34577803       2.22187451
C        0.14368242       1.20492966       2.17278297
H       -0.25790583       1.91530682       0.00340159
H       -1.75402112       0.92322332       0.23709692
H       -0.46372962      -0.95026421      -0.35371248
H        1.95072301      -1.03006081      -0.45084220
H        3.23479820       0.80936433       0.28492512
H        1.78228855       1.92910554      -0.01805160
H        1.90892035       0.30677873       2.39053589
H        1.92108208       2.15567787       2.28717804
H       -0.47606895       2.10727682       2.32225180
H       -0.56792438       0.30097716       2.34331033
