16
Properties=species:S:1:pos:R:3 energy:=T -17.820713068479=T gnorm:=T 0.000405323679=T xtb:=T 6.7.1=T (edcfbbe)=T pbc="F F F"
C       -0.73403302       0.98630982      -0.10045370
C        0.06378481       0.02232284      -0.33157174
C        1.44352506      -0.06083314      -0.39011334
C        2.27189552       1.01948912      -0.22357195
C        1.47416998       1.34345073       2.45055730
C        0.11381706       1.33607374       2.58742962
H       -0.41981397       1.91754076      -0.08736654
H       -1.86447449       0.93026817      -0.11933297
H       -0.41761858      -1.07066620      -0.39994359
H        2.11360193      -1.04340857      -0.34300671
H        3.32531577       0.94431727      -0.17103287
H        1.86500092       2.00243739      -0.02870039
H        2.09616463       0.35973391       2.68529681
H        1.90327055       2.17384166       2.56553773
H       -0.49898647       2.12596273       2.48011055
H       -0.50461223       0.33261918       2.61316748
