16
Properties=species:S:1:pos:R:3 energy:=T -17.821683480713=T gnorm:=T 0.000421170293=T xtb:=T 6.7.1=T (edcfbbe)=T pbc="F F F"
C       -0.72102784       1.03547448      -0.22885631
C       -0.00494071       0.00571260      -0.37524429
C        1.44618159      -0.08617600      -0.32742537
C        2.17751842       0.93364193      -0.04321912
C        1.44636912       1.21738339       2.58593066
C        0.11314405       1.23775834       2.62321038
H       -0.40071997       1.98433238      -0.12576795
H       -1.86553361       0.79073593      -0.16724008
H       -0.43705767      -1.01319186      -0.45411531
H        1.94051293      -1.02755389      -0.49684806
H        3.18880352       0.95238902      -0.22105136
H        1.89206175       2.12222331      -0.15326494
H        1.92626342       0.34732187       2.72036728
H        1.90369189       2.23557557       2.57285476
H       -0.45987553       2.13710239       2.56873435
H       -0.44704082       0.28173475       2.79847547
