16
Properties=species:S:1:pos:R:3 energy:=T -17.813369164842=T gnorm:=T 0.000460668107=T xtb:=T 6.7.1=T (edcfbbe)=T pbc="F F F"
C       -0.76165103       1.02084647       0.09871967
C       -0.07598547      -0.08596173      -0.30527167
C        1.59059923      -0.07560610      -0.31961490
C        2.23284393       0.94454979       0.06405681
C        1.29681523       1.36020888       2.30679661
C        0.03756802       1.15069041       2.30012596
H       -0.31642620       1.96447844       0.06216786
H       -1.81126221       0.94754161       0.14197521
H       -0.37929192      -1.05054592      -0.37675192
H        1.94974109      -0.98793044      -0.49622747
H        3.32948171       0.93435708       0.07912140
H        1.78646693       1.89019321      -0.06034498
H        1.97309808       0.41846777       2.48982627
H        1.99060082       2.13275375       2.36203573
H       -0.52307549       2.18024394       2.28700328
H       -0.55441223       0.27110587       2.45474477
