16
Properties=species:S:1:pos:R:3 energy:=T -17.924819342926=T gnorm:=T 0.000932102438=T xtb:=T 6.7.1=T (edcfbbe)=T pbc="F F F"
C       -0.55348871       1.00836460       0.40791455
C        0.14088850      -0.21897876      -0.17554440
C        1.28790948      -0.18975618      -0.12378113
C        2.02984361       0.92127387       0.52487489
C        1.53706946       1.24828464       1.83409883
C        0.06454914       1.22587320       1.88837928
H       -0.44349958       1.89748421      -0.19282716
H       -1.65833350       0.78170385       0.53193674
H       -0.44226677      -0.99101621      -0.56296980
H        2.02926955      -1.06738001      -0.67879248
H        3.24028722       0.84664856       0.55278791
H        1.91872969       1.88288680      -0.14755704
H        1.86263876       0.49056079       2.47711765
H        1.80660887       2.11998821       2.16934701
H       -0.43824863       2.37395452       2.15741910
H       -0.45661112       0.61693399       2.48534428
