16
Properties=species:S:1:pos:R:3 energy:=T -17.924819342926=T gnorm:=T 0.000932102438=T xtb:=T 6.7.1=T (edcfbbe)=T pbc="F F F"
C       -0.58732341       1.03122750       0.42673407
C        0.02128468      -0.17791349      -0.17637169
C        1.35668368      -0.15858142       0.01312661
C        2.06195668       0.97736103       0.48769304
C        1.45741847       1.25895067       1.80931772
C       -0.03988500       1.33605580       1.86929759
H       -0.56192989       1.85719278      -0.25222218
H       -1.68086443       0.79683795       0.59175014
H       -0.39486618      -1.00331641      -0.56114928
H        2.02864841      -1.02695724      -0.66354091
H        3.19590610       0.84710796       0.40825967
H        1.93324642       1.84481274      -0.23165692
H        1.86538019       0.42629864       2.43341738
H        1.95831355       2.28159680       2.18196295
H       -0.41124372       2.26219712       2.18896500
H       -0.25514138       0.48104267       2.55790114
