16
Properties=species:S:1:pos:R:3 energy:=T -17.917372504997=T gnorm:=T 0.000972558229=T xtb:=T 6.7.1=T (edcfbbe)=T pbc="F F F"
C       -0.65347143       1.01310026       0.44717379
C        0.12022355      -0.13827268      -0.11337461
C        1.46901331      -0.16145979      -0.14733654
C        2.07959689       1.04779512       0.32393037
C        1.41050396       1.24950814       1.92210729
C       -0.05934534       1.27849797       1.97001936
H       -0.36550740       2.03252406      -0.12105881
H       -1.66131908       0.86340016       0.44131057
H       -0.48919112      -0.99853922      -0.49368812
H        2.01712277      -1.04960354      -0.58148725
H        3.22086360       0.84193156       0.47027907
H        2.00411916       1.77667341      -0.15444025
H        1.83148759       0.42911214       2.52754896
H        1.97051030       2.15726553       2.20189795
H       -0.42308077       2.22822081       2.18481784
H       -0.41784703       0.53325794       2.63872889
