16
Properties=species:S:1:pos:R:3 energy:=T -17.877429643677=T gnorm:=T 0.000779366901=T xtb:=T 6.7.1=T (edcfbbe)=T pbc="F F F"
C       -0.74903323       0.90614446       0.30765126
C       -0.01627068      -0.16557085      -0.06764729
C        1.40368237      -0.04640024      -0.21556792
C        2.05608723       0.96312322       0.26768309
C        1.50457458       1.32528272       2.00088548
C       -0.03602069       1.23404671       1.96410226
H       -0.48104677       1.88107676      -0.04033510
H       -1.67096090       0.79076836       0.41408081
H       -0.47874813      -1.02672631      -0.58475346
H        1.98504902      -1.01595998      -0.51307249
H        3.25897319       0.82084565       0.42463482
H        1.86031841       1.87575395      -0.22842673
H        1.91895290       0.43334517       2.50127322
H        1.86844672       2.24098129       2.35719315
H       -0.37087860       2.13491680       2.25058667
H       -0.40697128       0.44371915       2.55211070
