16
Properties=species:S:1:pos:R:3 energy:=T -17.854084315501=T gnorm:=T 0.000809990318=T xtb:=T 6.7.1=T (edcfbbe)=T pbc="F F F"
C       -0.71673478       0.97421317       0.26107198
C        0.10058986      -0.09840939      -0.18995536
C        1.46125447      -0.16958843      -0.27116022
C        2.18542468       0.97014600       0.31323090
C        1.47379215       1.20037304       2.07167103
C        0.01626486       1.22950056       1.92798721
H       -0.36801894       1.98740708      -0.12669786
H       -1.70321759       0.85596678       0.28362093
H       -0.49434969      -0.97460887      -0.51212927
H        1.90262820      -1.10850226      -0.63941908
H        3.21031427       0.91522929       0.25896228
H        1.82785406       2.03665833      -0.27861754
H        2.00266234       0.49493400       2.60804457
H        1.95753908       2.24130588       2.33428619
H       -0.37180159       2.15993738       2.21266804
H       -0.55124903       0.44824370       2.61669592
