16
Properties=species:S:1:pos:R:3 energy:=T -17.899836407102=T gnorm:=T 0.000635713530=T xtb:=T 6.7.1=T (edcfbbe)=T pbc="F F F"
C       -0.70305982       1.07929322       0.38833436
C        0.10366248      -0.19518541      -0.20264798
C        1.44633486      -0.00205401      -0.17025785
C        2.12814660       1.03513124       0.36181094
C        1.44353098       1.18927703       1.96956001
C       -0.10230383       1.36352626       1.90878643
H       -0.47893791       1.83864372      -0.26011489
H       -1.75685948       0.85437699       0.43170828
H       -0.51225467      -1.04471016      -0.53132229
H        1.99112781      -0.98569018      -0.62075868
H        3.13765504       0.75864412       0.50049798
H        1.76421135       1.99488729      -0.21846024
H        1.85427657       0.50680353       2.53945587
H        1.88192926       2.26739620       2.27093948
H       -0.47056564       2.33912938       2.15955889
H       -0.37928695       0.51174241       2.49559639
