16
Properties=species:S:1:pos:R:3 energy:=T -17.899836407102=T gnorm:=T 0.000635713530=T xtb:=T 6.7.1=T (edcfbbe)=T pbc="F F F"
C       -0.62365925       0.95655101       0.25434191
C        0.00412600      -0.10568142      -0.28033820
C        1.31860494      -0.13609797      -0.26989904
C        2.05166420       1.01198130       0.34767700
C        1.44803087       1.26288258       2.01521245
C        0.00524289       1.24311599       1.90920077
H       -0.33903352       1.89312285      -0.17146155
H       -1.69514719       0.80283573       0.47497988
H       -0.56719071      -1.02836196      -0.47521768
H        1.96049455      -0.90029636      -0.54214283
H        3.22524229       0.84885889       0.40155018
H        1.99950905       2.01117953      -0.17377625
H        1.89835472       0.48433519       2.59595403
H        1.98441886       2.31458905       2.26067865
H       -0.43272005       2.26065029       2.23093241
H       -0.50007124       0.64517761       2.50295668
