16
Properties=species:S:1:pos:R:3 energy:=T -17.834185856637=T gnorm:=T 0.000899460021=T xtb:=T 6.7.1=T (edcfbbe)=T pbc="F F F"
C       -0.79792125       0.92494053       0.19764888
C        0.12224236      -0.17250302      -0.30568456
C        1.40536206      -0.05921517      -0.17172592
C        2.14359243       1.01196061       0.15334768
C        1.47141373       1.22339704       2.10294004
C       -0.04256688       1.30756585       2.06876774
H       -0.44888108       1.98272247      -0.21168181
H       -1.70465848       0.99415499       0.34420584
H       -0.49856653      -1.08298017      -0.50465534
H        2.07896379      -0.96708602      -0.53648225
H        3.14002736       0.93730295       0.31823471
H        1.82263803       2.02474456      -0.20741240
H        1.88585826       0.44820269       2.55633497
H        1.92382550       2.17714141       2.35177479
H       -0.45466984       2.14248286       2.24181161
H       -0.42119961       0.31398415       2.66210571
