16
Properties=species:S:1:pos:R:3 energy:=T -17.820307793211=T gnorm:=T 0.000596792534=T xtb:=T 6.7.1=T (edcfbbe)=T pbc="F F F"
C       -0.62134127       1.06237222       0.12031518
C       -0.01144769      -0.08798488      -0.30098668
C        1.43130539      -0.15484895      -0.28363778
C        2.07914406       1.05424969       0.16593241
C        1.41007964       1.11245530       2.21325117
C       -0.02743633       1.18111113       2.13779810
H       -0.30442501       1.97305897      -0.13224518
H       -1.83791608       1.00258702       0.23174477
H       -0.51485967      -1.15655351      -0.46996200
H        1.99254036      -0.96073715      -0.49772778
H        3.20471788       0.97729418       0.17410435
H        1.75848974       2.05202039      -0.03033500
H        1.85175147       0.26555883       2.56986575
H        1.91975311       2.16620300       2.22757201
H       -0.41873814       2.16806705       2.38814594
H       -0.54731911       0.30024847       2.42123994
