16
Properties=species:S:1:pos:R:3 energy:=T -17.924819342926=T gnorm:=T 0.000932102438=T xtb:=T 6.7.1=T (edcfbbe)=T pbc="F F F"
C       -0.59504547       0.85363733       0.40623304
C        0.09836873      -0.19611844      -0.08986884
C        1.37860851      -0.13868174      -0.13482659
C        2.06363596       0.96499601       0.42040248
C        1.43136674       1.28810513       1.79178120
C       -0.03565370       1.21565173       1.94152063
H       -0.43865173       1.96762762      -0.23136330
H       -1.72400284       0.85977830       0.54860892
H       -0.49359169      -0.93099789      -0.53944860
H        2.05677416      -1.01789095      -0.50613398
H        2.93794482       0.85013313       0.50951903
H        1.90816971       1.87706330      -0.19638706
H        1.89065117       0.45212377       2.48297815
H        1.90802011       2.21129107       2.16203621
H       -0.38145252       2.25883358       2.15285390
H       -0.44928084       0.55399597       2.57226513
