16
Properties=species:S:1:pos:R:3 energy:=T -17.834185856637=T gnorm:=T 0.000899460021=T xtb:=T 6.7.1=T (edcfbbe)=T pbc="F F F"
C       -0.62470732       0.99719497       0.38430451
C       -0.00860451      -0.12464389      -0.18158152
C        1.45923867      -0.06851380      -0.19702525
C        2.12246727       1.02400468       0.27156414
C        1.54466640       1.17720310       2.07208654
C        0.01980304       1.29942140       2.03302934
H       -0.29448464       1.95529033      -0.09383662
H       -1.71474190       1.00396709       0.26221010
H       -0.44909143      -1.04000435      -0.50584222
H        2.00957760      -1.07780605      -0.42627222
H        3.14733397       0.85556708       0.35712952
H        1.94141638       2.01865327      -0.18879576
H        1.95837277       0.37450709       2.50413293
H        1.95464430       2.21633397       2.36095183
H       -0.52685520       2.27684996       2.29907250
H       -0.55588879       0.34348049       2.54688939
