16
Properties=species:S:1:pos:R:3 energy:=T -17.820307793211=T gnorm:=T 0.000596792534=T xtb:=T 6.7.1=T (edcfbbe)=T pbc="F F F"
C       -0.70860999       1.03413800       0.16386326
C        0.03141747      -0.14735623      -0.29799762
C        1.36588983      -0.07759234      -0.34387451
C        2.14944752       1.00969954       0.20174378
C        1.39904735       1.15854837       2.08842486
C        0.04664652       1.39836759       2.08941937
H       -0.34956224       2.08551293      -0.06153079
H       -1.68299245       0.95961113       0.29246593
H       -0.47537466      -1.06945250      -0.41593999
H        1.90111341      -0.99083953      -0.54944782
H        3.11374487       0.93778544       0.27314774
H        1.87145478       1.97613498      -0.06515014
H        1.86487444       0.44663300       2.38365489
H        2.01757294       2.13098393       2.22114546
H       -0.51398344       2.18672009       2.29614059
H       -0.52430430       0.34467962       2.49923142
