16
Properties=species:S:1:pos:R:3 energy:=T -17.877429643677=T gnorm:=T 0.000779366901=T xtb:=T 6.7.1=T (edcfbbe)=T pbc="F F F"
C       -0.59110679       0.99381008       0.28793074
C        0.04786462      -0.09545651      -0.21150906
C        1.33359885      -0.06892628      -0.21842598
C        2.15983555       1.09062995       0.34529445
C        1.53381096       1.28429127       2.03320053
C        0.05048929       1.31358290       1.99112465
H       -0.42940302       1.92075750      -0.17132591
H       -1.74827063       0.89693503       0.39251070
H       -0.43138995      -1.00951057      -0.57452131
H        1.99684062      -1.08248525      -0.35327561
H        3.15522058       0.85406769       0.50563322
H        1.86380369       1.88103334      -0.24677872
H        1.98210113       0.40738623       2.67037958
H        1.95851023       2.23153106       2.34501500
H       -0.44403063       2.22200009       2.19949475
H       -0.52378938       0.48997623       2.44434198
