16
Properties=species:S:1:pos:R:3 energy:=T -17.899836407102=T gnorm:=T 0.000635713530=T xtb:=T 6.7.1=T (edcfbbe)=T pbc="F F F"
C       -0.54364530       0.97365933       0.41451881
C        0.11739288      -0.14956286      -0.20864074
C        1.42985377      -0.15322116      -0.22613571
C        2.16784064       1.00760819       0.41888925
C        1.42601282       1.25683702       1.78426375
C       -0.03568544       1.23749738       1.97190867
H       -0.39742113       1.91702636      -0.14768186
H       -1.75028816       0.77779907       0.53510142
H       -0.44748794      -0.97059309      -0.57315251
H        2.02561967      -0.97659370      -0.42144134
H        3.05368225       0.77859942       0.50843146
H        1.96247397       1.92822077      -0.20416884
H        1.86464316       0.58603391       2.61922626
H        1.92648244       2.27217956       2.32928359
H       -0.48507285       2.19222522       2.23641940
H       -0.47654937       0.54711477       2.59758581
