16
Properties=species:S:1:pos:R:3 energy:=T -17.917372504997=T gnorm:=T 0.000972558229=T xtb:=T 6.7.1=T (edcfbbe)=T pbc="F F F"
C       -0.66813889       1.01605422       0.46066972
C        0.02873049      -0.16704204      -0.06528530
C        1.44380187      -0.25609452      -0.14003284
C        2.11825839       0.99983082       0.42621140
C        1.54546795       1.31428127       1.94509437
C       -0.00296386       1.34798632       1.92091533
H       -0.51870725       1.80998866      -0.08951912
H       -1.75426445       0.76667427       0.56367913
H       -0.44085320      -1.00543832      -0.49332876
H        1.94935543      -1.01560609      -0.64234231
H        3.29590616       0.83380066       0.54601739
H        1.85821993       1.92076545      -0.29175760
H        1.84741389       0.55986201       2.62888162
H        1.98849441       2.25682517       2.14278517
H       -0.39940778       2.23492669       2.25465376
H       -0.37961855       0.62147470       2.58603712
