16
Properties=species:S:1:pos:R:3 energy:=T -17.899836407102=T gnorm:=T 0.000635713530=T xtb:=T 6.7.1=T (edcfbbe)=T pbc="F F F"
C       -0.63114709       1.03659289       0.34717184
C        0.11600552      -0.10272173      -0.28603358
C        1.34014026      -0.14008429      -0.27301712
C        2.17944836       0.95801049       0.31920092
C        1.49421520       1.42600333       1.87188646
C       -0.02278612       1.24728804       1.97035896
H       -0.46234719       1.90324873      -0.17202613
H       -1.73321255       0.83784146       0.49017610
H       -0.50512657      -1.02755837      -0.61161878
H        1.99308722      -1.00507829      -0.56844322
H        3.14823256       0.80804986       0.40399788
H        2.02219047       1.94315632      -0.08304703
H        1.79387819       0.40517950       2.57340732
H        1.89359604       2.21917251       2.20237582
H       -0.45365755       2.09690814       2.37946727
H       -0.44752826       0.48579578       2.61180366
