16
Properties=species:S:1:pos:R:3 energy:=T -17.854084315501=T gnorm:=T 0.000809990318=T xtb:=T 6.7.1=T (edcfbbe)=T pbc="F F F"
C       -0.63855046       1.04513449       0.34763716
C        0.05265857      -0.07673404      -0.25048398
C        1.51784107      -0.18476867      -0.28708782
C        2.15483235       1.12579487       0.27499318
C        1.46396677       1.22059269       2.11912999
C       -0.04956915       1.24744574       2.02387672
H       -0.30771235       1.89858055      -0.23387026
H       -1.71543174       0.88966370       0.25696333
H       -0.55658825      -1.07492668      -0.50978907
H        1.89879111      -0.88818761      -0.49222424
H        3.28167844       0.91056303       0.38068154
H        1.90593346       1.93504259      -0.30557429
H        1.95328858       0.37739208       2.65296157
H        1.86221168       2.22111296       2.29853967
H       -0.50155947       2.18313623       2.28401969
H       -0.44351708       0.44962396       2.56284692
