16
Properties=species:S:1:pos:R:3 energy:=T -17.820307793211=T gnorm:=T 0.000596792534=T xtb:=T 6.7.1=T (edcfbbe)=T pbc="F F F"
C       -0.66314815       0.98368321       0.19606266
C        0.00202913      -0.10026115      -0.30077458
C        1.32149299      -0.17892010      -0.33014411
C        2.20529689       1.06059191       0.18349204
C        1.39995576       1.19400932       2.15469659
C        0.04973439       1.13549934       2.11269750
H       -0.36358773       2.08882288      -0.12103089
H       -1.78554615       0.99149969       0.24661183
H       -0.42534022      -1.07191236      -0.32012650
H        1.94159286      -1.01056988      -0.43802068
H        3.20665421       0.94727357       0.25268714
H        1.85900887       1.89069474      -0.15825091
H        1.92893847       0.33481547       2.58521021
H        1.98336901       2.15153657       2.26326037
H       -0.37457106       2.19996385       2.44955373
H       -0.56339554       0.43802578       2.49987427
