16
Properties=species:S:1:pos:R:3 energy:=T -17.924819342926=T gnorm:=T 0.000932102438=T xtb:=T 6.7.1=T (edcfbbe)=T pbc="F F F"
C       -0.50206011       1.05258697       0.50116870
C        0.05608796      -0.23335631      -0.18166207
C        1.47047789      -0.14463409      -0.12124219
C        2.13896288       0.95773295       0.45605205
C        1.45060538       1.22367507       1.87154935
C       -0.11343794       1.38342017       1.85483222
H       -0.55263767       1.84573160      -0.25358767
H       -1.63658425       0.86770652       0.53350398
H       -0.40608573      -0.97663870      -0.58328629
H        1.92847964      -1.05448067      -0.54350741
H        3.22232196       0.82752167       0.54806904
H        1.94784165       1.98880421      -0.17222082
H        1.94229257       0.51103082       2.47296834
H        1.79029254       2.18062397       2.21876315
H       -0.47499819       2.31648045       2.16723228
H       -0.51190043       0.53186305       2.49378087
