16
Properties=species:S:1:pos:R:3 energy:=T -17.854084315501=T gnorm:=T 0.000809990318=T xtb:=T 6.7.1=T (edcfbbe)=T pbc="F F F"
C       -0.73500156       1.08963922       0.29985949
C        0.09918609      -0.25458399      -0.22874244
C        1.35949106      -0.09443235      -0.25322176
C        2.10190566       0.95268185       0.24392337
C        1.50720143       1.16923548       2.00066732
C       -0.01410738       1.25454955       2.01735456
H       -0.37472290       1.96549249      -0.29704718
H       -1.66811582       0.80367122       0.43334180
H       -0.44596427      -1.13215549      -0.50484146
H        2.04129285      -0.94519815      -0.49917050
H        3.15098648       0.96037604       0.27576445
H        1.76650631       2.00723940      -0.24634569
H        1.95624130       0.36886286       2.52322675
H        1.99744996       2.20733252       2.33618004
H       -0.47051554       2.18507654       2.25722304
H       -0.50949176       0.45654344       2.58773251
