16
Properties=species:S:1:pos:R:3 energy:=T -17.917372504997=T gnorm:=T 0.000972558229=T xtb:=T 6.7.1=T (edcfbbe)=T pbc="F F F"
C       -0.80326232       1.00962958       0.45721886
C       -0.03170279      -0.13337650      -0.12465971
C        1.37434320      -0.15537033      -0.21893025
C        2.03669720       0.96178528       0.36295785
C        1.55202982       1.25713800       1.92651328
C        0.02744228       1.36661614       1.88940454
H       -0.44315099       1.84269441      -0.25723504
H       -1.61403894       0.88819812       0.44302901
H       -0.55663559      -0.89557167      -0.54909308
H        2.04688433      -0.90725157      -0.57749848
H        3.23537211       0.75547933       0.50152702
H        1.99205932       1.97372315      -0.19402589
H        1.91395124       0.46957103       2.60106043
H        1.81784522       2.23417982       2.20263702
H       -0.47983247       2.21958068       2.19142973
H       -0.35394024       0.55760376       2.56624064
