16
Properties=species:S:1:pos:R:3 energy:=T -17.899836407102=T gnorm:=T 0.000635713530=T xtb:=T 6.7.1=T (edcfbbe)=T pbc="F F F"
C       -0.60104053       1.06938605       0.26130407
C        0.10270714      -0.17426525      -0.19264799
C        1.29730847      -0.13188828      -0.13623205
C        2.13270707       0.95140844       0.33452538
C        1.50432659       1.27799270       1.85555816
C       -0.09110684       1.20134164       1.93862934
H       -0.34550062       1.98495853      -0.21325947
H       -1.73226968       0.89097320       0.49997213
H       -0.42850659      -0.98698694      -0.58437497
H        2.00357005      -0.90855391      -0.54403361
H        3.30752283       0.78470578       0.44256457
H        1.93395680       1.90127442      -0.14419887
H        1.91330241       0.53741579       2.64649038
H        1.83457589       2.23023033       2.35677657
H       -0.45782798       2.18386933       2.18850315
H       -0.49618041       0.48911058       2.57246219
