16
Properties=species:S:1:pos:R:3 energy:=T -17.924819342926=T gnorm:=T 0.000932102438=T xtb:=T 6.7.1=T (edcfbbe)=T pbc="F F F"
C       -0.70290896       0.99157073       0.61138566
C        0.07696520      -0.13346652      -0.14344161
C        1.38791031      -0.20398175      -0.14722881
C        2.12033275       1.03411771       0.49093275
C        1.45451306       1.24528372       1.87955848
C       -0.02237510       1.19728076       1.79485381
H       -0.35164552       1.86512557      -0.19833887
H       -1.67748433       0.85625505       0.46279264
H       -0.54351146      -0.90352071      -0.61525414
H        1.98921944      -0.90884213      -0.57246463
H        3.16791838       0.78898422       0.49281595
H        1.99963629       1.91092456      -0.17279240
H        1.84585677       0.60278582       2.61298047
H        1.89565569       2.20827511       2.14056450
H       -0.30016968       2.37648228       2.16145520
H       -0.38435754       0.42428547       2.48704186
