16
Properties=species:S:1:pos:R:3 energy:=T -17.854084315501=T gnorm:=T 0.000809990318=T xtb:=T 6.7.1=T (edcfbbe)=T pbc="F F F"
C       -0.63922331       1.02560915       0.17790778
C       -0.04424579      -0.16825745      -0.24012185
C        1.33922488      -0.19589247      -0.19855889
C        2.09393872       0.97270285       0.23848853
C        1.40100363       1.32226163       2.13678056
C        0.06813026       1.36471339       1.92430284
H       -0.32726887       1.95504442      -0.08389278
H       -1.76652054       0.94155442       0.47824190
H       -0.45042127      -1.01600094      -0.51764089
H        1.99718266      -1.03541522      -0.57877771
H        3.23994240       0.99691175       0.39417448
H        1.92712667       2.04229216      -0.16680996
H        1.92427573       0.38697140       2.58020982
H        1.96498612       2.15826904       2.28489938
H       -0.38841052       2.17572122       2.34956075
H       -0.42639931       0.41859091       2.62168884
