16
Properties=species:S:1:pos:R:3 energy:=T -17.834185856637=T gnorm:=T 0.000899460021=T xtb:=T 6.7.1=T (edcfbbe)=T pbc="F F F"
C       -0.75722742       1.01450311       0.12915382
C        0.05588120      -0.08821825      -0.22728246
C        1.43661257      -0.12474470      -0.30071837
C        2.08032411       0.97998562       0.18117136
C        1.42129069       1.25641553       2.05757335
C       -0.07861087       1.28596444       2.05298987
H       -0.45017201       1.93423100      -0.16010146
H       -1.74629651       0.92990308       0.42966401
H       -0.56363388      -0.93223663      -0.46104566
H        1.93389419      -1.16226248      -0.48844969
H        3.23978098       0.85437722       0.22355661
H        1.74006761       1.99923888      -0.13777751
H        2.03178114       0.35910584       2.58589918
H        1.86657041       2.17008593       2.37846336
H       -0.49017642       2.21480364       2.23649872
H       -0.52590188       0.35518681       2.46985124
