16
Properties=species:S:1:pos:R:3 energy:=T -17.854084315501=T gnorm:=T 0.000809990318=T xtb:=T 6.7.1=T (edcfbbe)=T pbc="F F F"
C       -0.66050950       0.87906476       0.33609638
C        0.10137873      -0.21084127      -0.29687401
C        1.28307271      -0.30732893      -0.27504198
C        2.22205827       1.01546138       0.26999115
C        1.47138303       1.29968251       2.04284941
C       -0.04618970       1.23274752       2.08457884
H       -0.40862156       1.85217235      -0.14071850
H       -1.71521631       0.96497719       0.37065037
H       -0.49057833      -1.03326227      -0.55588751
H        1.97657439      -1.05662642      -0.56860674
H        3.19130517       0.89438418       0.38592004
H        1.89376734       2.08652654      -0.18943722
H        2.00060094       0.43294249       2.56810030
H        1.97504102       2.16326647       2.29377558
H       -0.41997520       2.12967298       2.24460781
H       -0.48032024       0.43111211       2.60480383
