16
Properties=species:S:1:pos:R:3 energy:=T -17.917372504997=T gnorm:=T 0.000972558229=T xtb:=T 6.7.1=T (edcfbbe)=T pbc="F F F"
C       -0.64319694       1.02885187       0.39085831
C        0.04914230      -0.20212028      -0.19216194
C        1.36490881      -0.16297154      -0.27181397
C        2.08614020       1.03557289       0.35978782
C        1.43667702       1.41145744       1.85836050
C        0.08783669       1.29490170       1.92192468
H       -0.41462886       1.85342105      -0.24210364
H       -1.70026417       0.82412170       0.55467108
H       -0.53117879      -1.03567980      -0.54900357
H        1.93338030      -1.05100062      -0.54753819
H        3.15840119       0.74438251       0.56021661
H        1.93242711       1.75290897      -0.24076700
H        1.94590595       0.52118279       2.50512578
H        1.91097641       2.21454484       2.19034126
H       -0.39938607       2.19700982       2.32453582
H       -0.57216320       0.42389149       2.60271863
