16
Properties=species:S:1:pos:R:3 energy:=T -17.834185856637=T gnorm:=T 0.000899460021=T xtb:=T 6.7.1=T (edcfbbe)=T pbc="F F F"
C       -0.73123747       1.08170438       0.17556344
C        0.11879112      -0.12578891      -0.22246450
C        1.36561122      -0.17828997      -0.27840073
C        2.04200911       0.94746067       0.23153157
C        1.53382334       1.25582819       2.01332354
C       -0.03618393       1.25571535       2.09150707
H       -0.22545969       2.08822781      -0.15397695
H       -1.62322534       0.86928259       0.26705530
H       -0.40957328      -1.08130321      -0.49891597
H        2.03725487      -1.04832795      -0.39905718
H        3.23915459       0.89705074       0.35005038
H        1.87867853       2.03399152      -0.18172475
H        1.98746369       0.26822952       2.52346992
H        1.94378995       2.23411394       2.38596411
H       -0.54156566       2.15583814       2.30741344
H       -0.49320683       0.40836562       2.57236011
