16
Properties=species:S:1:pos:R:3 energy:=T -17.877429643677=T gnorm:=T 0.000779366901=T xtb:=T 6.7.1=T (edcfbbe)=T pbc="F F F"
C       -0.59325731       1.02109843       0.33179645
C        0.03025140      -0.13595256      -0.20327161
C        1.39982853      -0.13571054      -0.30958123
C        2.18072310       0.98278903       0.32355533
C        1.43996969       1.26272246       1.95202671
C        0.06573777       1.23394217       1.94576654
H       -0.43509982       1.85810032      -0.25390928
H       -1.71177136       0.87503437       0.46068874
H       -0.47045657      -1.07462566      -0.60359044
H        2.02775424      -1.15430896      -0.53147893
H        3.23311821       0.92822012       0.49760296
H        1.95764194       2.04743106      -0.30192421
H        1.89082761       0.49174135       2.42606229
H        1.87004787       2.30545383       2.23145523
H       -0.38761855       2.27341275       2.34383640
H       -0.39052245       0.50439385       2.60513889
