16
Properties=species:S:1:pos:R:3 energy:=T -17.834185856637=T gnorm:=T 0.000899460021=T xtb:=T 6.7.1=T (edcfbbe)=T pbc="F F F"
C       -0.71466001       1.02985752       0.15132571
C        0.12045714      -0.10216707      -0.28439952
C        1.47421478      -0.17208924      -0.27850798
C        2.16770549       1.03929519       0.20994064
C        1.50633289       1.21291705       2.09653154
C       -0.03878048       1.24111374       2.02500260
H       -0.42400953       1.98788296      -0.20394252
H       -1.68638009       0.97709475       0.35046280
H       -0.43888957      -0.99692674      -0.56567500
H        1.88349530      -1.00845730      -0.53919643
H        3.15780123       0.91438916       0.33360210
H        1.71975116       1.99019567      -0.08718385
H        1.95942943       0.48094601       2.50868546
H        2.01885918       2.31779032       2.35751590
H       -0.41077482       2.24670375       2.17801217
H       -0.51271235       0.45579290       2.45897859
