16
Properties=species:S:1:pos:R:3 energy:=T -17.899836407102=T gnorm:=T 0.000635713530=T xtb:=T 6.7.1=T (edcfbbe)=T pbc="F F F"
C       -0.60460417       0.98388450       0.32670467
C        0.09698465      -0.28252417      -0.28900814
C        1.34333985      -0.24317753      -0.20067281
C        2.05454369       1.03422485       0.35303670
C        1.39444446       1.15232681       2.04674009
C        0.00011187       1.31782274       1.91120138
H       -0.50772040       1.98589799      -0.26436590
H       -1.74143336       0.83794692       0.41135661
H       -0.53258117      -1.04192080      -0.58757185
H        2.05910330      -1.00815575      -0.50173262
H        3.13589908       0.80583827       0.42531941
H        1.83018038       1.90864929      -0.28031912
H        1.82718871       0.49854586       2.57453851
H        1.85963231       2.25599484       2.30760093
H       -0.35407781       2.30026144       2.22121123
H       -0.35345033       0.48283582       2.54064140
