16
Properties=species:S:1:pos:R:3 energy:=T -17.854084315501=T gnorm:=T 0.000809990318=T xtb:=T 6.7.1=T (edcfbbe)=T pbc="F F F"
C       -0.65460083       0.96889349       0.26893771
C        0.11370750      -0.13048380      -0.36461653
C        1.50053914      -0.16489273      -0.19778855
C        2.10051955       1.06853032       0.24043525
C        1.55157785       1.34029511       2.01032680
C       -0.16080241       1.28679665       1.99121404
H       -0.33028175       1.98313653      -0.19216111
H       -1.78045355       0.84173375       0.44714696
H       -0.43695219      -1.03858252      -0.49203967
H        2.01284078      -1.03683321      -0.60984741
H        3.29053733       0.87156669       0.33164824
H        1.85758689       1.90882148      -0.23388536
H        1.93690109       0.39379962       2.58558210
H        1.95206403       2.32331474       2.28423807
H       -0.45318591       2.18294181       2.36597765
H       -0.42624300       0.45545237       2.66774550
