16
Properties=species:S:1:pos:R:3 energy:=T -17.877429643677=T gnorm:=T 0.000779366901=T xtb:=T 6.7.1=T (edcfbbe)=T pbc="F F F"
C       -0.71818372       1.00624212       0.29840440
C        0.00967904      -0.12403646      -0.16026230
C        1.43072116      -0.23073661      -0.20956673
C        2.17287219       1.06833819       0.38482560
C        1.53757029       1.27108590       2.02305026
C        0.03366846       1.29037654       2.01126138
H       -0.49110064       1.95043039      -0.22121965
H       -1.73466876       0.96641829       0.42883317
H       -0.47814427      -1.06293891      -0.63638283
H        1.88714683      -1.04390755      -0.55597710
H        3.07582784       0.81361362       0.41446747
H        1.83937984       1.90670053      -0.18577973
H        1.98600496       0.49174709       2.65981292
H        1.82689614       2.31639331       2.25941337
H       -0.38566237       2.36127643       2.33208357
H       -0.41443640       0.57297178       2.53189719
