16
Properties=species:S:1:pos:R:3 energy:=T -17.899836407102=T gnorm:=T 0.000635713530=T xtb:=T 6.7.1=T (edcfbbe)=T pbc="F F F"
C       -0.59966027       1.01319466       0.38336519
C        0.02724341      -0.17970972      -0.18684466
C        1.42659380      -0.13662118      -0.29482346
C        2.23474532       1.03624311       0.31546198
C        1.54936127       1.28653465       1.92007839
C        0.06745542       1.23594059       1.88796991
H       -0.49575068       1.88005857      -0.02773931
H       -1.73944858       0.78731623       0.47231187
H       -0.46075021      -0.94399467      -0.60163944
H        2.07390067      -0.99933459      -0.60114661
H        3.14864054       0.86512236       0.46499323
H        1.90148522       1.91880696      -0.07428066
H        1.97275680       0.47595695       2.52368498
H        1.96029156       2.19519944       2.14604028
H       -0.48514081       2.18099364       2.16369800
H       -0.43807216       0.45867622       2.54114030
