16
Properties=species:S:1:pos:R:3 energy:=T -17.877429643677=T gnorm:=T 0.000779366901=T xtb:=T 6.7.1=T (edcfbbe)=T pbc="F F F"
C       -0.69240410       1.02740569       0.32618572
C        0.13927051      -0.10856360      -0.19587716
C        1.36777300      -0.17263345      -0.16917118
C        2.13859156       1.07879317       0.27759535
C        1.53818820       1.27814893       2.02001480
C       -0.10431817       1.32815113       1.94386584
H       -0.35152858       1.98597907      -0.22359536
H       -1.63467118       0.94954977       0.52052039
H       -0.42097812      -1.03698067      -0.45146085
H        1.89990115      -1.03410564      -0.51500711
H        3.10610004       0.93278286       0.45740228
H        1.89154673       1.81546788      -0.22438674
H        1.96118821       0.51464177       2.51777441
H        1.84799298       2.24206246       2.21091294
H       -0.53562166       2.32343970       2.27771048
H       -0.41437372       0.46248379       2.62368928
