16
Properties=species:S:1:pos:R:3 energy:=T -17.877429643677=T gnorm:=T 0.000779366901=T xtb:=T 6.7.1=T (edcfbbe)=T pbc="F F F"
C       -0.71520409       1.11298211       0.29372636
C        0.01262975      -0.12382786      -0.31932065
C        1.54414092       0.00783706      -0.14251410
C        2.06238350       1.03133197       0.33040497
C        1.44493954       1.26690762       2.02506600
C       -0.04077521       1.28538659       1.99805157
H       -0.50665636       1.91380677      -0.21569603
H       -1.60791142       0.87275209       0.44958237
H       -0.47496830      -1.01611881      -0.52820078
H        1.96413017      -1.15924642      -0.53155994
H        3.15602333       0.84358273       0.35613956
H        1.83648187       1.93870918      -0.21760162
H        1.91869025       0.49324943       2.56892367
H        1.93025889       2.20006833       2.26287570
H       -0.39897562       2.22873974       2.31822851
H       -0.43043799       0.54705458       2.50298567
