16
Properties=species:S:1:pos:R:3 energy:=T -17.834185856637=T gnorm:=T 0.000899460021=T xtb:=T 6.7.1=T (edcfbbe)=T pbc="F F F"
C       -0.73803990       0.93513733       0.20810048
C       -0.00406778      -0.12465189      -0.31718390
C        1.42194925      -0.07833384      -0.23479131
C        2.16876532       0.99782798       0.23529424
C        1.42729366       1.19040079       2.01916350
C        0.00355388       1.25086320       2.17909716
H       -0.38631662       2.06182957      -0.23472547
H       -1.74660118       1.03901156       0.28847661
H       -0.54269607      -1.09241025      -0.35494138
H        2.01480882      -1.06596021      -0.50340921
H        3.05625610       0.90064711       0.39447016
H        1.70478365       2.04279634      -0.11117581
H        2.01830063       0.35303197       2.54770796
H        2.01034505       2.20643555       2.34819073
H       -0.49424566       2.16968005       2.27679514
H       -0.46658780       0.38636688       2.52024739
