16
Properties=species:S:1:pos:R:3 energy:=T -17.924819342926=T gnorm:=T 0.000932102438=T xtb:=T 6.7.1=T (edcfbbe)=T pbc="F F F"
C       -0.69404061       1.03310791       0.54397235
C        0.06715563      -0.21944303      -0.26129786
C        1.45904068      -0.21459840      -0.15504677
C        2.13297481       0.94384284       0.44682921
C        1.57990842       1.23642125       1.81958575
C       -0.03446191       1.19200311       1.81159430
H       -0.42129760       1.99397903      -0.24394540
H       -1.69630122       0.84878175       0.50934654
H       -0.54891037      -0.99598235      -0.59750154
H        1.93396403      -0.99725029      -0.57943013
H        3.03654221       0.83671693       0.51470851
H        1.94390858       1.76313875      -0.07589157
H        1.86635482       0.42499309       2.58440797
H        1.92021151       2.21387743       2.26098005
H       -0.38317741       2.18817163       2.15111771
H       -0.37368410       0.61444231       2.49769951
