16
Properties=species:S:1:pos:R:3 energy:=T -17.877429643677=T gnorm:=T 0.000779366901=T xtb:=T 6.7.1=T (edcfbbe)=T pbc="F F F"
C       -0.66473901       1.06011845       0.37346511
C        0.17114565      -0.20128026      -0.23611863
C        1.37859227      -0.18689855      -0.19063942
C        2.16749290       0.98949247       0.31636429
C        1.55424934       1.27455452       2.05906838
C       -0.00920078       1.31406726       2.10732482
H       -0.45602068       1.95654055      -0.11144162
H       -1.71249177       0.94340768       0.57750528
H       -0.40476897      -1.02062989      -0.58488606
H        1.98386475      -1.05006181      -0.58225933
H        3.24333014       0.90421141       0.31928650
H        1.86658917       1.87422619      -0.14550680
H        1.93856644       0.53592841       2.56804236
H        1.95520143       2.28437882       2.27521119
H       -0.38721498       2.12935461       2.34100395
H       -0.51791782       0.45466896       2.58407292
