16
Properties=species:S:1:pos:R:3 energy:=T -17.834185856637=T gnorm:=T 0.000899460021=T xtb:=T 6.7.1=T (edcfbbe)=T pbc="F F F"
C       -0.68889428       1.09495224       0.19323826
C        0.06867506      -0.02911027      -0.26787397
C        1.40426442      -0.14045488      -0.20819389
C        2.18054387       1.12776452       0.31923893
C        1.37106942       1.28781862       2.21371669
C        0.03442028       1.25578834       2.03672000
H       -0.28694910       1.93588394      -0.12845049
H       -1.74953344       0.94439853       0.29333700
H       -0.50616169      -0.97009082      -0.47124476
H        2.00443178      -1.06252112      -0.38850456
H        3.23138640       0.98617378       0.35929418
H        1.73478173       1.85111333      -0.07998561
H        1.91228380       0.36807374       2.49443100
H        1.91144544       2.20193442       2.36313996
H       -0.48679498       2.06651350       2.34706169
H       -0.45154049       0.35620220       2.46899972
