16
Properties=species:S:1:pos:R:3 energy:=T -17.917372504997=T gnorm:=T 0.000972558229=T xtb:=T 6.7.1=T (edcfbbe)=T pbc="F F F"
C       -0.61811765       1.11166394       0.44575311
C        0.14415363      -0.12731190      -0.19226336
C        1.28940516      -0.18606535      -0.15470327
C        2.12857037       0.93957204       0.46498266
C        1.47260316       1.23625328       1.89359895
C       -0.02723383       1.22498735       1.82913529
H       -0.46113181       2.00081351      -0.34801933
H       -1.85620223       0.78219113       0.47837793
H       -0.45381017      -1.09655765      -0.54847364
H        1.99906746      -0.93923090      -0.60542790
H        3.13263352       0.81227386       0.47321337
H        1.91518691       1.86235014      -0.14800069
H        1.86882070       0.51000514       2.58598187
H        1.88236704       2.27256998       2.12354800
H       -0.41549472       2.26200659       2.17494910
H       -0.44068887       0.47257822       2.62169851
