16
Properties=species:S:1:pos:R:3 energy:=T -17.917372504997=T gnorm:=T 0.000972558229=T xtb:=T 6.7.1=T (edcfbbe)=T pbc="F F F"
C       -0.71780781       0.98045575       0.49095571
C        0.11491830      -0.20767980      -0.19302948
C        1.30545377      -0.16380403      -0.23550772
C        2.03627951       0.94245226       0.44443849
C        1.41561267       1.14757962       1.99829352
C       -0.04966681       1.27137659       1.82592140
H       -0.41350526       1.92505613      -0.15750107
H       -1.68484169       0.87110546       0.52561306
H       -0.51473331      -0.94511605      -0.55498354
H        1.94759232      -0.97877335      -0.67018691
H        3.18742310       0.78899608       0.42439855
H        1.97390711       1.99429738      -0.12976632
H        1.91301650       0.47824304       2.47126411
H        1.87741797       2.21863321       2.22288451
H       -0.33415926       2.29872371       2.22882311
H       -0.39051047       0.43963760       2.58365118
