16
Properties=species:S:1:pos:R:3 energy:=T -17.854084315501=T gnorm:=T 0.000809990318=T xtb:=T 6.7.1=T (edcfbbe)=T pbc="F F F"
C       -0.57957787       1.02099714       0.24618282
C        0.08729875      -0.06904122      -0.31598360
C        1.48530694      -0.17598391      -0.28534779
C        2.25001592       1.05973596       0.23268397
C        1.50876940       1.33150859       2.07860418
C        0.05383195       1.28430567       2.07074084
H       -0.43945157       1.91304715      -0.16253203
H       -1.79146484       0.92076479       0.36101406
H       -0.43497641      -0.98441408      -0.52979435
H        1.83359239      -1.09536208      -0.50928032
H        3.29458410       0.89009700       0.39326589
H        1.85469098       1.83556886      -0.14506893
H        1.91214486       0.36172144       2.59421311
H        1.92667932       2.35210795       2.19327636
H       -0.49696338       2.21486760       2.28048132
H       -0.42343208       0.47539403       2.58405923
