16
Properties=species:S:1:pos:R:3 energy:=T -17.854084315501=T gnorm:=T 0.000809990318=T xtb:=T 6.7.1=T (edcfbbe)=T pbc="F F F"
C       -0.61529160       1.00869195       0.26955339
C        0.09294040      -0.10165125      -0.21563042
C        1.45532388      -0.16349860      -0.15075521
C        2.12670911       1.00181691       0.34472634
C        1.53524490       1.15646269       2.05075909
C        0.05440726       1.30594394       1.94719563
H       -0.42416322       1.91861772      -0.12764706
H       -1.66886777       0.91636464       0.36777452
H       -0.53642404      -0.95517913      -0.64234389
H        1.99993847      -0.98443095      -0.48530387
H        3.20208906       0.90297792       0.41191322
H        1.81929906       2.01210942      -0.16882860
H        1.93466176       0.27214335       2.48290557
H        1.91946195       2.17547839       2.35921075
H       -0.54746123       2.29155167       2.35277781
H       -0.43674970       0.40668320       2.49267678
