16
Properties=species:S:1:pos:R:3 energy:=T -17.820307793211=T gnorm:=T 0.000596792534=T xtb:=T 6.7.1=T (edcfbbe)=T pbc="F F F"
C       -0.83816279       1.00811122       0.10456597
C        0.12098827      -0.08532230      -0.32078372
C        1.48524874      -0.03738704      -0.21197212
C        2.21435427       1.08158308       0.11925059
C        1.45549037       1.24067886       2.17737859
C        0.05837378       1.22664688       2.12365731
H       -0.32555261       1.94873236      -0.15226289
H       -1.68990038       0.92462394       0.27787285
H       -0.51369954      -1.13028191      -0.45188477
H        2.05789161      -1.02495948      -0.47126496
H        3.25748764       0.91327961       0.22923869
H        1.68284666       1.89807466      -0.06180471
H        1.95963857       0.34522035       2.55332547
H        1.92148137       2.15328016       2.24845004
H       -0.54260158       2.10037961       2.37484304
H       -0.43164668       0.27319005       2.48362282
