16
Properties=species:S:1:pos:R:3 energy:=T -17.877429643677=T gnorm:=T 0.000779366901=T xtb:=T 6.7.1=T (edcfbbe)=T pbc="F F F"
C       -0.63472056       1.05117855       0.27053903
C        0.08089994      -0.13110777      -0.22689007
C        1.45897129      -0.13085395      -0.23377195
C        2.17672598       1.02437974       0.47406269
C        1.39407989       1.29793323       1.99312465
C       -0.00598603       1.17427845       2.00031420
H       -0.45285006       1.97578489      -0.25085736
H       -1.62449405       0.85780718       0.38993067
H       -0.47722869      -1.10217200      -0.59761106
H        2.00026905      -1.03787913      -0.53470452
H        3.06513610       0.78028501       0.31848688
H        1.98614394       1.92183850      -0.12070279
H        1.89174089       0.52860053       2.53034176
H        1.88761034       2.22382095       2.27378103
H       -0.56565767       2.23055211       2.21420184
H       -0.48362902       0.45103863       2.53636332
