16
Properties=species:S:1:pos:R:3 energy:=T -17.917372504997=T gnorm:=T 0.000972558229=T xtb:=T 6.7.1=T (edcfbbe)=T pbc="F F F"
C       -0.61792146       1.01789038       0.34633156
C        0.05251674      -0.18465371      -0.13681512
C        1.41739267      -0.13727601      -0.25461124
C        2.20654569       0.95556012       0.34403116
C        1.49812768       1.31119743       1.87445345
C        0.06276991       1.26140839       1.85702065
H       -0.55492451       1.96757925      -0.21951483
H       -1.73443174       0.71265681       0.45086378
H       -0.53891723      -0.97652579      -0.51349282
H        2.04199682      -1.04384349      -0.55783740
H        3.27066545       0.86186218       0.55255676
H        2.02150265       1.92400369      -0.18869880
H        2.03553238       0.43150701       2.56158095
H        1.93850898       2.26481168       2.21481689
H       -0.44464840       2.32554957       2.10501357
H       -0.47651364       0.43824031       2.50620921
