16
Properties=species:S:1:pos:R:3 energy:=T -17.834185856637=T gnorm:=T 0.000899460021=T xtb:=T 6.7.1=T (edcfbbe)=T pbc="F F F"
C       -0.72940004       0.98008409       0.26815228
C        0.13791262      -0.11026671      -0.42170217
C        1.40516478      -0.23397566      -0.29808253
C        2.17919832       1.06105214       0.21336169
C        1.46591422       1.28109579       2.07521433
C       -0.00548643       1.31450473       2.12558992
H       -0.28137646       2.01250359      -0.11736903
H       -1.68546444       0.95855768       0.41331325
H       -0.45070961      -1.05487702      -0.49325667
H        1.89903633      -1.01475501      -0.51104452
H        3.12633726       0.95467133       0.39977872
H        1.72731536       2.04488075      -0.12707789
H        1.87831895       0.34917909       2.52756820
H        2.07156158       2.19784130       2.40417198
H       -0.50637720       2.24509398       2.35996342
H       -0.50721686       0.35573144       2.56667361
