16
Properties=species:S:1:pos:R:3 energy:=T -17.917372504997=T gnorm:=T 0.000972558229=T xtb:=T 6.7.1=T (edcfbbe)=T pbc="F F F"
C       -0.64466685       0.95261792       0.36592275
C        0.01410685      -0.15325720      -0.16954083
C        1.34884763      -0.21499247      -0.16319866
C        2.03887296       1.09235885       0.41500724
C        1.46348242       1.31385021       1.77064671
C        0.01254218       1.25877815       1.95107183
H       -0.41406065       1.84065488      -0.09901261
H       -1.72648403       0.80809736       0.57481586
H       -0.44025686      -1.03647876      -0.55308039
H        1.94010846      -1.05488048      -0.61089837
H        3.20751048       0.70926001       0.52037349
H        1.89360417       1.87390254      -0.11389035
H        1.91124426       0.49612430       2.66248412
H        1.79394892       2.25875896       2.27359821
H       -0.50974992       2.28716981       2.19455521
H       -0.30382507       0.57740609       2.58259861
