16
Properties=species:S:1:pos:R:3 energy:=T -17.924819342926=T gnorm:=T 0.000932102438=T xtb:=T 6.7.1=T (edcfbbe)=T pbc="F F F"
C       -0.61223421       0.95356795       0.44159951
C        0.06088711      -0.13284494      -0.19609375
C        1.47061405      -0.16863366      -0.19538575
C        2.18643791       0.99116214       0.44634257
C        1.43727837       1.36366593       1.83734691
C        0.00261461       1.27000996       1.85732681
H       -0.55260452       1.85070278      -0.26955700
H       -1.71794012       0.87794937       0.49527321
H       -0.51690966      -0.96927528      -0.46277968
H        2.03619102      -1.08677933      -0.48350468
H        3.06042185       0.73498741       0.54088198
H        2.04187961       1.82800412      -0.26670463
H        1.84541645       0.52927801       2.61006525
H        1.88898961       2.22047332       2.16334229
H       -0.40646744       2.27679288       2.12544915
H       -0.41031098       0.56696453       2.66560782
