16
Properties=species:S:1:pos:R:3 energy:=T -17.924819342926=T gnorm:=T 0.000932102438=T xtb:=T 6.7.1=T (edcfbbe)=T pbc="F F F"
C       -0.64383178       1.05279473       0.49965252
C        0.12801182      -0.13590039      -0.21529954
C        1.36295441      -0.19642074      -0.13016031
C        2.08242696       1.06049977       0.46107504
C        1.52463265       1.16954561       1.84952827
C       -0.08726065       1.33800420       1.83214440
H       -0.42876565       1.91809033      -0.21514126
H       -1.73359502       0.89052590       0.60326232
H       -0.55202764      -1.06586728      -0.52034610
H        1.90885754      -0.98106894      -0.67915461
H        3.23092525       0.85461310       0.50943085
H        1.87831710       1.73200002      -0.18969578
H        1.90714904       0.53553633       2.45615311
H        1.92842382       2.26865358       2.10877684
H       -0.50289221       2.19787256       2.26069845
H       -0.42741696       0.61952520       2.59614266
