16
Properties=species:S:1:pos:R:3 energy:=T -17.899836407102=T gnorm:=T 0.000635713530=T xtb:=T 6.7.1=T (edcfbbe)=T pbc="F F F"
C       -0.63586904       0.91111453       0.36405639
C       -0.06550964      -0.17766609      -0.23053169
C        1.49692600      -0.18278026      -0.24862029
C        2.07493214       0.94167060       0.35768224
C        1.50200060       1.39580243       1.85793617
C        0.01898070       1.20388916       1.92084443
H       -0.38049903       1.98630018      -0.14226764
H       -1.75296186       0.89927983       0.55888967
H       -0.58762010      -1.04456385      -0.55190303
H        1.98780568      -0.98905164      -0.56966822
H        3.14671401       0.87320042       0.41765706
H        1.91278406       1.94056215      -0.16693307
H        1.95326051       0.56014819       2.60530425
H        2.00543028       2.16658921       2.25628691
H       -0.42017332       2.23770006       2.24305924
H       -0.39885908       0.48205141       2.69186072
