16
Properties=species:S:1:pos:R:3:forces:R:3:charge:R:1 energy:=T -17.834185856637=T gnorm:=T 0.000899460021=T xtb:=T 6.7.1=T (edcfbbe)=T energy=-484.6962658319969 free_energy=-484.6962658319969 dipole="2.8874280904186452e-05 0.053160150920788886 0.017331904817450783" pbc="F F F"
C       -0.69997245       1.01054077       0.07300602       0.00000333       0.00003371      -0.00003326      -0.07399160
C        0.02704851      -0.07935439      -0.26916502      -0.00003180      -0.00000252       0.00007476      -0.03303663
C        1.44297152      -0.07930639      -0.26916232       0.00001779       0.00001097       0.00005255      -0.03303988
C        2.16989877       1.01064181       0.07306415      -0.00002008      -0.00001933      -0.00007159      -0.07398415
C        1.41036252       1.24655036       2.24736463       0.00000656      -0.00006620      -0.00002104      -0.07703403
C        0.05969475       1.24666294       2.24744714       0.00000542      -0.00005821      -0.00001916      -0.07704314
H       -0.31223602       2.00513668      -0.04689776       0.00001309       0.00006367       0.00001973       0.04777225
H       -1.76994441       0.94032043       0.18388576      -0.00000795      -0.00003069       0.00005011       0.03455447
H       -0.46585010      -1.03937729      -0.34868772      -0.00002375      -0.00001114       0.00000233       0.02781697
H        1.93594205      -1.03929582      -0.34865693      -0.00001308       0.00002603      -0.00002693       0.02781660
H        3.23987392       0.94049806       0.18396536       0.00002943      -0.00002878      -0.00001148       0.03455670
H        1.78210171       2.00521001      -0.04688642      -0.00001374       0.00004730      -0.00000735       0.04777501
H        1.96053419       0.35448581       2.49020171       0.00004249       0.00001505       0.00002487       0.03482749
H        1.96532124       2.16844865       2.27011596      -0.00004561      -0.00002953      -0.00003705       0.03909476
H       -0.49513542       2.16863816       2.27013154       0.00007882       0.00000297      -0.00003247       0.03908806
H       -0.49061081       0.35467877       2.49027392      -0.00004094       0.00004670       0.00003596       0.03482712
