24
Properties=species:S:1:pos:R:3 energy:=T -46.256077848854=T gnorm:=T 0.002889470893=T xtb:=T 6.7.1pre=T (5071a88)=T pbc="F F F"
O        4.45418196       4.74185885       3.66723305
H        4.13860354       4.40196987       4.51397991
H        5.36790695       4.43041827       3.60923718
O        4.62122397       4.44796241       6.57940676
H        3.95934123       4.03772007       7.13810879
H        4.49509271       5.41315222       6.67436965
O        4.76403869       7.49435853       4.04525388
H        4.52290587       6.60108883       3.74271618
H        4.44698635       7.53408815       4.95832868
O        4.48719982       7.16685333       6.87492505
H        5.45856576       7.30352574       7.04373119
H        4.04757602       7.74786622       7.49803240
O        6.97460118       4.22093629       4.84685643
H        6.20685392       4.23780184       5.43148283
H        7.22010324       5.15255455       4.71826396
O        7.37703009       4.66048708       7.61872621
H        7.79735858       4.30749697       6.82357345
H        6.44222271       4.43991547       7.51954101
O        7.34308431       7.01098659       4.55403541
H        6.40256352       7.23478513       4.34409447
H        7.86000003       7.42675494       3.86252185
O        7.08454482       7.42523563       7.32120934
H        7.39525928       7.44959420       6.40195655
H        7.32753070       6.53107932       7.62067848
