16
Properties=species:S:1:pos:R:3:forces:R:3:energies:R:1 energy:=T -17.812259918842=T gnorm:=T 0.000930443810=T xtb:=T 6.7.1=T (edcfbbe)=T energy=-6385.760586418717 stress="-1.4973668014125445e-11 6.748409433926237e-12 2.598643060981952e-11 6.748409433926237e-12 1.1502859210963974e-11 -7.235516330205385e-12 2.598643060981952e-11 -7.235516330205385e-12 2.892262056768781e-12" free_energy=-6385.760586418717 pbc="F F F"
C       -0.64225703       1.02853009       0.24167052      -0.00000626      -0.00000272       0.00000068   -1037.06975798
C        0.04593715      -0.05678505      -0.25657573      -0.00000448       0.00000085      -0.00000201   -1037.48367268
C        1.44026198      -0.06363648      -0.26101544       0.00000131       0.00000248      -0.00000043   -1037.55839822
C        2.12880210       1.02497254       0.21318598       0.00000478      -0.00000081       0.00000164   -1036.99979093
C        1.40406833       1.21699168       2.10103895       0.00000145      -0.00000027       0.00000012   -1037.00082720
C        0.04511036       1.22000665       2.08473212      -0.00000423       0.00000021      -0.00000066   -1037.13296578
H       -0.32605285       2.02910697      -0.01046731       0.00000242      -0.00000312       0.00000113     -16.24518135
H       -1.69705566       0.93055393       0.45285192       0.00000216       0.00000607       0.00000535     -16.25869094
H       -0.47940945      -0.99089282      -0.41489699       0.00000324      -0.00000502      -0.00000295     -16.25096723
H        1.95780188      -1.00392469      -0.40798291       0.00000448       0.00000338       0.00000354     -16.25393210
H        3.17754064       0.93905315       0.44606293      -0.00000239      -0.00000272      -0.00000764     -16.26475044
H        1.78960909       2.02329037      -0.00984905       0.00000306      -0.00000053       0.00000168     -16.25262413
H        1.93901235       0.31461361       2.34339811      -0.00000148       0.00000226       0.00000122     -16.25613796
H        1.97039280       2.13227510       2.13900300      -0.00000204      -0.00000141      -0.00000196     -16.24681782
H       -0.50701429       2.14265271       2.16699830       0.00000082      -0.00000058       0.00000274     -16.24029109
H       -0.48674741       0.32767079       2.37184561      -0.00000284       0.00000192      -0.00000245     -16.24578056
