16
Properties=species:S:1:pos:R:3:forces:R:3:charge:R:1 energy:=T -17.815412885497=T gnorm:=T 0.000359351609=T xtb:=T 6.7.1=T (edcfbbe)=T energy=-484.96693033105373 free_energy=-484.96693033105373 dipole="0.0005370314754333251 -0.0024559762649476557 0.007194568443966145" pbc="F F F"
C       -1.11835717       0.69589998      -1.83897787       0.00044709      -0.00177673       0.00086111      -0.08537968
C       -0.43030487      -0.18843358      -1.12622490       0.00081668       0.00143556       0.00046425      -0.02529149
C        0.62817808       0.12294672      -0.17789645      -0.00023529       0.00050535      -0.00022934      -0.02548795
C        1.30406076       1.26416554      -0.11448496      -0.00044280       0.00033533      -0.00092939      -0.08494243
C        2.43140540       1.24130765       3.79460050      -0.01015440      -0.00126561      -0.00302650      -0.07728126
C        1.17155944       1.28827410       3.41482640       0.01055724       0.00057494       0.00319729      -0.07475078
H       -0.94368397       1.75522399      -1.75887681       0.00006414       0.00113520       0.00012742       0.04146726
H       -1.89161429       0.39171473      -2.52342330       0.00007320      -0.00049601       0.00019598       0.03602783
H       -0.66538463      -1.24142139      -1.22231778      -0.00021090      -0.00105454      -0.00014139       0.03171434
H        0.87606553      -0.67403462       0.51230278      -0.00005032       0.00087131      -0.00048729       0.03173053
H        2.07394013       1.42215077       0.62102619      -0.00023826       0.00048879      -0.00047447       0.03781106
H        1.11837606       2.07713412      -0.79573318       0.00035051      -0.00087053       0.00087804       0.04160450
H        2.93327951       0.30917718       3.99767812      -0.00253807       0.00037468      -0.00078157       0.03772778
H        3.02369334       2.13300453       3.92132218       0.00023635       0.00126614      -0.00026001       0.03746008
H        0.66989324       2.21972011       3.20960331       0.00188766      -0.00058364       0.00060346       0.03866637
H        0.57889345       0.39764870       3.28657578      -0.00056282      -0.00094023       0.00000240       0.03892384
