16
Properties=species:S:1:pos:R:3:forces:R:3 energy:=T -17.815412885497=T gnorm:=T 0.000359351609=T xtb:=T 6.7.1=T (edcfbbe)=T energy=-6381.870764404509 free_energy=-6381.870764404509 pbc="F F F"
C       -0.70092327       1.01309297      -0.02343125       0.00007315       0.00025773      -0.00067178
C        0.01556391      -0.07406904      -0.30882461       0.00007450      -0.00002530      -0.00030920
C        1.45444728      -0.07405929      -0.30882943       0.00023252      -0.00002205      -0.00030321
C        2.17092057       1.01311059      -0.02343101       0.00008358      -0.00000490      -0.00009601
C        1.40088336       1.24077563       2.36390552      -0.00015609       0.00002270       0.00050611
C        0.06911138       1.24079070       2.36390309       0.00214073       0.00353815      -0.00398487
H       -0.28912885       2.00436128      -0.00408859      -0.00004037      -0.00001094      -0.00004569
H       -1.76889203       0.94488206       0.10301508      -0.00006241       0.00007725       0.00001414
H       -0.49783156      -1.01959056      -0.38397785       0.00005339      -0.00011343      -0.00013152
H        1.96785592      -1.01957322      -0.38398980      -0.00007263      -0.00008664      -0.00001015
H        3.23889102       0.94491372       0.10300907       0.00002860       0.00005751      -0.00003049
H        1.75911324       2.00437351      -0.00408228      -0.00002049      -0.00003398      -0.00002135
H        1.95987019       0.33769358       2.53830221       0.00006399      -0.00003447      -0.00035967
H        1.96045449       2.16001336       2.31511344      -0.00010923       0.00003554       0.00077640
H       -0.49043877       2.16004100       2.31510546       0.00013028       0.00024128       0.00062758
H       -0.48989687       0.33772225       2.53830096      -0.00241953      -0.00389845       0.00403970
