12
 energy: -20.324807213618 gnorm: 0.000297242312 xtb: 6.7.1pre (5071a88)
O            1.89682488869416       -0.14996454839271        0.34432693031496
H            2.34005240636118       -0.62519175840266       -0.35990833535226
H            1.23551098442425       -0.77515441768910        0.71800073991278
O            0.11717618185165        1.73763569458550       -0.37535048887641
H            0.27547299459026        2.50888224565421        0.17075568885273
H            0.84034259425805        1.10463688993619       -0.16487749343869
O           -1.90069558347107        0.11465517075175        0.35969186635857
H           -2.39161212630918       -0.11422149581140       -0.43078298980145
H           -1.23640803808532        0.78497192998293        0.08098399662389
O           -0.11540460705782       -1.69950022002004        1.23619960032992
H           -0.21928636064703       -1.77704372480773        2.18565366327569
H           -0.84197333455722       -1.10970576576223        0.93194394189853
