6
 energy: -10.141423998948 gnorm: 0.000128361467 xtb: 6.7.1pre (5071a88)
O           -3.25824461115402       -0.04482508790696        0.30901971547042
H           -2.53821012742406        0.02078183622903       -0.32136877986071
H           -2.87655343696685        0.04548632152273        1.18437871406670
O            5.42046489936897        0.06770800337657        0.35710739718687
H            5.83065376630471       -0.47268716298592        1.03529846345080
H            6.12188950994704        0.38353608974412       -0.21611695038944
