3
Properties=species:S:1:pos:R:3 source_file=scoord.1 pbc="F F F"
O       -0.00431412       0.00260149       0.09435580
H       -0.02870985       0.78172429      -0.43820033
H       -0.02852914      -0.76021596      -0.36877552
3
Properties=species:S:1:pos:R:3 source_file=scoord.2 pbc="F F F"
O       -0.00355074       0.00387897       0.10992672
H       -0.03501438       0.68803606      -0.56325157
H       -0.03443830      -0.68696672      -0.49284968
3
Properties=species:S:1:pos:R:3 source_file=scoord.3 pbc="F F F"
O       -0.00432939       0.00606997       0.09389529
H       -0.02773650       0.85689340      -0.42148151
H       -0.02925809      -0.89087870      -0.37812647
3
Properties=species:S:1:pos:R:3 source_file=scoord.4 pbc="F F F"
O       -0.00429450       0.00756127       0.09454604
H       -0.02773463       0.81767685      -0.41977149
H       -0.02981832      -0.87552203      -0.39024815
3
Properties=species:S:1:pos:R:3 source_file=scoord.5 pbc="F F F"
O       -0.00315702       0.00910060       0.11776288
H       -0.03619508       0.68198340      -0.58716083
H       -0.03955677      -0.76445703      -0.59431435
3
Properties=species:S:1:pos:R:3 source_file=scoord.6 pbc="F F F"
O       -0.00417105       0.00732004       0.09708305
H       -0.02877848       0.77403420      -0.43927730
H       -0.03074951      -0.82801997      -0.41133298
3
Properties=species:S:1:pos:R:3 source_file=scoord.7 pbc="F F F"
O       -0.00317551       0.00747381       0.11745371
H       -0.03642530       0.70845557      -0.59300152
H       -0.03903068      -0.76490157      -0.58352717
3
Properties=species:S:1:pos:R:3 source_file=scoord.8 pbc="F F F"
O       -0.00475831       0.00340552       0.08522962
H       -0.02467042       0.89585365      -0.36038382
H       -0.02546182      -0.88720938      -0.30057860
3
Properties=species:S:1:pos:R:3 source_file=scoord.9 pbc="F F F"
O       -0.00306915       0.00959587       0.11954031
H       -0.03658204       0.66340774      -0.59428952
H       -0.04057566      -0.75380541      -0.61562357
3
Properties=species:S:1:pos:R:3 source_file=scoord.10 pbc="F F F"
O       -0.00316196       0.00506642       0.11783371
H       -0.03479244       0.58604482      -0.55436131
H       -0.04088036      -0.60397394      -0.62824718
3
Properties=species:S:1:pos:R:3 source_file=scoord.11 pbc="F F F"
O        0.01642629      -2.34566463       0.61897850
H        0.27721861      24.86119199       4.79731510
H       -0.66629184      12.73117687     -13.99794204
3
Properties=species:S:1:pos:R:3 source_file=scoord.12 pbc="F F F"
O        0.07303809      -7.00732412       1.97644674
H        1.61935870      81.55988906      29.85218294
H       -2.91418696      30.61625756     -60.77149391
3
Properties=species:S:1:pos:R:3 source_file=scoord.13 pbc="F F F"
O        0.11673967     -10.56099764       3.02243292
H        3.50274238     134.38252044      66.15075055
H       -5.49676997      34.65028776    -113.80521784
3
Properties=species:S:1:pos:R:3 source_file=scoord.14 pbc="F F F"
O        0.14803231     -13.09150909       3.77081301
H        5.69453855     181.41012229     109.00909621
H       -8.18922982      28.10936316    -168.63719964
3
Properties=species:S:1:pos:R:3 source_file=scoord.15 pbc="F F F"
O        0.16986068     -14.85096397       4.29260615
H        8.06188306     223.41749330     155.67465485
H      -10.90581519      14.25222331    -223.65113805
3
Properties=species:S:1:pos:R:3 source_file=scoord.16 pbc="F F F"
O        0.18491781     -16.06202439       4.65242612
H       10.53057025     261.58535591     204.57821428
H      -13.61540746      -4.53939329    -278.31160282
3
Properties=species:S:1:pos:R:3 source_file=scoord.17 pbc="F F F"
O        0.19525073     -16.89184026       4.89929764
H       13.05915900     296.96331366     254.82679406
H      -16.30931684     -26.64079084    -332.50998008
3
Properties=species:S:1:pos:R:3 source_file=scoord.18 pbc="F F F"
O        0.20232419     -17.45924475       5.06826712
H       15.62412824     330.36539451     305.90425311
H      -18.98745719     -50.96473759    -386.29085024
3
Properties=species:S:1:pos:R:3 source_file=scoord.19 pbc="F F F"
O        0.20716046     -17.84684709       5.18378039
H       18.21177981     362.38777955     357.50479730
H      -21.65248618     -76.78571588    -439.73953800
