16
Properties=species:S:1:pos:R:3 energy:=T -17.815412885497=T gnorm:=T 0.000359351609=T xtb:=T 6.7.1=T (edcfbbe)=T pbc="F F F"
C       -0.70092327       1.01309297      -0.02343125
C        0.01556391      -0.07406904      -0.30882461
C        1.45444728      -0.07405929      -0.30882943
C        2.17092057       1.01311059      -0.02343101
C        1.40088336       1.24077563       2.36390552
C        0.06911138       1.24079070       2.36390309
H       -0.28912885       2.00436128      -0.00408859
H       -1.76889203       0.94488206       0.10301508
H       -0.49783156      -1.01959056      -0.38397785
H        1.96785592      -1.01957322      -0.38398980
H        3.23889102       0.94491372       0.10300907
H        1.75911324       2.00437351      -0.00408228
H        1.95987019       0.33769358       2.53830221
H        1.96045449       2.16001336       2.31511344
H       -0.49043877       2.16004100       2.31510546
H       -0.48989687       0.33772225       2.53830096
