16
Properties=species:S:1:pos:R:3 energy:=T -17.815412885497=T gnorm:=T 0.000359351609=T xtb:=T 6.7.1=T (edcfbbe)=T pbc="F F F"
C       -0.70751602       1.01456327      -0.05346036
C        0.01432555      -0.07564897      -0.30625252
C        1.45568590      -0.07563915      -0.30625797
C        2.17751352       1.01458117      -0.05346071
C        1.39956324       1.24116108       2.39345058
C        0.07043107       1.24117687       2.39344765
H       -0.29389204       2.00551711      -0.03235807
H       -1.77663436       0.94650045       0.06321776
H       -0.49729270      -1.02321328      -0.36988284
H        1.96731749      -1.02319581      -0.36989674
H        3.24663369       0.94653276       0.06320958
H        1.76387615       2.00552929      -0.03234984
H        1.95974338       0.33530719       2.54766604
H        1.95887063       2.15995390       2.33485239
H       -0.48885434       2.15998276       2.33484373
H       -0.48977138       0.33533704       2.54766421
