16
Properties=species:S:1:pos:R:3 energy:=T -17.815412885497=T gnorm:=T 0.000359351609=T xtb:=T 6.7.1=T (edcfbbe)=T pbc="F F F"
C       -0.70421965       1.01382812      -0.03844581
C        0.01494473      -0.07485900      -0.30753856
C        1.45506659      -0.07484922      -0.30754370
C        2.17421704       1.01384588      -0.03844586
C        1.40022330       1.24096835       2.37867805
C        0.06977123       1.24098378       2.37867537
H       -0.29151045       2.00493920      -0.01822333
H       -1.77276319       0.94569125       0.08311642
H       -0.49756213      -1.02140192      -0.37693035
H        1.96758671      -1.02138452      -0.37694327
H        3.24276235       0.94572324       0.08310933
H        1.76149469       2.00495140      -0.01821606
H        1.95980678       0.33650038       2.54298412
H        1.95966256       2.15998363       2.32498291
H       -0.48964656       2.16001188       2.32497460
H       -0.48983413       0.33652964       2.54298259
