16
Properties=species:S:1:pos:R:3 energy:=T -17.815412885497=T gnorm:=T 0.000359351609=T xtb:=T 6.7.1=T (edcfbbe)=T pbc="F F F"
C       -0.69762689       1.01235782      -0.00841669
C        0.01618309      -0.07327908      -0.31011066
C        1.45382797      -0.07326936      -0.31011516
C        2.16762410       1.01237530      -0.00841616
C        1.40154342       1.24058291       2.34913299
C        0.06845153       1.24059762       2.34913081
H       -0.28674725       2.00378336       0.01004615
H       -1.76502087       0.94407287       0.12291374
H       -0.49810099      -1.01777920      -0.39102535
H        1.96812513      -1.01776192      -0.39103633
H        3.23501969       0.94410420       0.12290881
H        1.75673179       2.00379562       0.01005150
H        1.95993360       0.33888678       2.53362030
H        1.96124642       2.16004309       2.30524397
H       -0.49123098       2.16007012       2.30523632
H       -0.48995961       0.33891486       2.53361933
