16
Properties=species:S:1:pos:R:3 energy:=T -17.815412885497=T gnorm:=T 0.000359351609=T xtb:=T 6.7.1=T (edcfbbe)=T pbc="F F F"
C       -0.69433052       1.01162267       0.00659786
C        0.01680227      -0.07248911      -0.31139670
C        1.45320866      -0.07247943      -0.31140089
C        2.16432762       1.01164001       0.00659869
C        1.40220348       1.24039018       2.33436046
C        0.06779169       1.24040453       2.33435853
H       -0.28436566       2.00320545       0.02418089
H       -1.76114970       0.94326367       0.14281240
H       -0.49837042      -1.01596784      -0.39807286
H        1.96839435      -1.01595063      -0.39808286
H        3.23114835       0.94329468       0.14280856
H        1.75435033       2.00321773       0.02418528
H        1.95999700       0.34007997       2.52893838
H        1.96203835       2.16007282       2.29537449
H       -0.49202320       2.16009924       2.29536719
H       -0.49002236       0.34010746       2.52893771
