16
Properties=species:S:1:pos:R:3 energy:=T -17.815412885497=T gnorm:=T 0.000359351609=T xtb:=T 6.7.1=T (edcfbbe)=T pbc="F F F"
C       -0.69499321       1.05050848      -0.02554907
C        0.02672930      -0.11366471      -0.27376051
C        1.44760210      -0.09554707      -0.36944580
C        2.15731100       0.98052643       0.02057721
C        1.41431095       1.25170393       2.35076499
C        0.06130516       1.18596478       2.34661644
H       -0.28214902       1.96726875      -0.00778691
H       -1.79363224       0.94615155       0.07512472
H       -0.50739036      -1.07705610      -0.37695554
H        1.98664940      -0.99010938      -0.44132635
H        3.22414101       0.96123614       0.15329405
H        1.74175319       1.99213102      -0.00112729
H        1.93915468       0.36883501       2.54550193
H        1.97547365       2.19649188       2.33986614
H       -0.50335910       2.17646893       2.28394874
H       -0.53453498       0.35119537       2.52868094
