16
Properties=species:S:1:pos:R:3 energy:=T -17.815412885497=T gnorm:=T 0.000359351609=T xtb:=T 6.7.1=T (edcfbbe)=T pbc="F F F"
C       -0.67424433       1.02907180      -0.09143013
C       -0.00244631      -0.08646136      -0.33239311
C        1.47566615      -0.07670422      -0.29870559
C        2.22290659       1.01251473      -0.00469234
C        1.39158539       1.18926926       2.33971196
C        0.09910883       1.23105228       2.36474392
H       -0.27301715       1.96196217      -0.03967768
H       -1.75062425       0.93173234       0.06354106
H       -0.50628779      -1.01351864      -0.37019020
H        1.95777564      -1.07722948      -0.38527764
H        3.23710030       0.96259355       0.14010810
H        1.71421434       2.01581241      -0.04281527
H        1.93973680       0.30700834       2.55640739
H        1.99293324       2.17125835       2.35187812
H       -0.49130575       2.16515572       2.30668229
H       -0.53376302       0.31685015       2.53958341
