16
Properties=species:S:1:pos:R:3:forces:R:3:charge:R:1 energy:=T -17.815412885497=T gnorm:=T 0.000359351609=T xtb:=T 6.7.1=T (edcfbbe)=T energy=-484.696265859384 free_energy=-484.696265859384 dipole="-5.428447787081178e-06 0.05289910492176062 0.01811645733098976" pbc="F F F"
C       -0.69994105       1.02181247       0.07588171       0.00000990      -0.00000228      -0.00001974      -0.07398656
C        0.02703911      -0.06287584      -0.28254508       0.00000741       0.00001964      -0.00004188      -0.03303844
C        1.44296154      -0.06285765      -0.28255765       0.00002140       0.00000022      -0.00001121      -0.03303821
C        2.16994148       1.02183057       0.07587176      -0.00001300      -0.00001640      -0.00001123      -0.07398688
C        1.41032655       1.22527147       2.25352768      -0.00000272       0.00001595       0.00002720      -0.07703962
C        0.05965904       1.22527456       2.25352620       0.00002147       0.00000654       0.00000580      -0.07703937
H       -0.31216601       2.01807434      -0.02915979      -0.00002240       0.00002314      -0.00004092       0.04777440
H       -1.76991775       0.94998258       0.18569183       0.00002536      -0.00001753       0.00005657       0.03455591
H       -0.46588833      -1.02159024      -0.37638835       0.00000029       0.00001014      -0.00000879       0.02781716
H        1.93590753      -1.02156166      -0.37640464       0.00000008      -0.00003027      -0.00003310       0.02781720
H        3.23991808       0.94998390       0.18567238      -0.00000347       0.00000792       0.00005861       0.03455535
H        1.78218794       2.01810379      -0.02914742      -0.00004098      -0.00003392      -0.00006211       0.04777279
H        1.96058234       0.32973374       2.48302091      -0.00000445      -0.00000929      -0.00000013       0.03482599
H        1.96520362       2.14677505       2.28999804       0.00001590       0.00001902       0.00003241       0.03909167
H       -0.49521221       2.14678182       2.28999538      -0.00002175       0.00001589       0.00002311       0.03909184
H       -0.49060188       0.32973962       2.48301702       0.00000695      -0.00000878       0.00002542       0.03482676
