16
Properties=species:S:1:pos:R:3:forces:R:3 energy:=T -17.815412885497=T gnorm:=T 0.000359351609=T xtb:=T 6.7.1=T (edcfbbe)=T energy=-6382.411045184739 free_energy=-6382.411045184739 pbc="F F F"
C       -0.70246584       1.01480802      -0.02339107       0.00007497       0.00031387      -0.00081796
C        0.01543963      -0.07341530      -0.30521110       0.00016052      -0.00000769      -0.00029927
C        1.45457133      -0.07340563      -0.30521573       0.00027389      -0.00002487      -0.00030347
C        2.17246299       1.01482551      -0.02339055       0.00007555       0.00001610      -0.00010429
C        1.40136056       1.23809875       2.36401694      -0.00017961       0.00000261       0.00052727
C        0.06863453       1.23811354       2.36401417       0.00232178       0.00384126      -0.00410614
H       -0.29533851       2.00815432      -0.01855177      -0.00005239       0.00004988      -0.00003392
H       -1.76998049       0.94627672       0.10335582      -0.00010308       0.00000333      -0.00001983
H       -0.49775859      -1.01927736      -0.37979592      -0.00007631      -0.00010919      -0.00015182
H        1.96778266      -1.01926015      -0.37980792      -0.00001110       0.00001066      -0.00000126
H        3.23997936       0.94630818       0.10334979      -0.00004817      -0.00002588      -0.00004996
H        1.76532271       2.00816656      -0.01854460       0.00001174      -0.00003872       0.00000118
H        1.96050506       0.33525592       2.53806088       0.00004232      -0.00003004      -0.00026401
H        1.96139062       2.15725903       2.32152990      -0.00007166       0.00000778       0.00068254
H       -0.49137493       2.15728619       2.32152106       0.00009666       0.00017768       0.00060968
H       -0.49053109       0.33528423       2.53806008      -0.00251510      -0.00418677       0.00433128
