16
Properties=species:S:1:pos:R:3 energy:=T -17.812259918842=T gnorm:=T 0.000930443810=T xtb:=T 6.7.1=T (edcfbbe)=T pbc="F F F"
C       -0.65176396       1.29889612      -0.37799541
C       -0.05103430       0.12310072      -0.25116320
C        1.38049099      -0.05519025      -0.11646179
C        2.27310038       0.88705259      -0.39170551
C        1.30250891       1.39419284       2.62579227
C        0.12429534       0.80136280       2.78178799
H       -0.10966419       2.22740605      -0.41446442
H       -1.72515631       1.35890213      -0.44777459
H       -0.66570528      -0.76398874      -0.22841944
H        1.73656469      -1.02805246       0.18870615
H        3.32708110       0.70204669      -0.26827132
H        1.98628954       1.86062486      -0.74692797
H        2.20262387       0.82656522       2.48706191
H        1.37189692       2.46878585       2.61631215
H       -0.77009434       1.38266538       2.93579275
H        0.02856664      -0.26989125       2.80773046
