16
Properties=species:S:1:pos:R:3 energy:=T -17.812259918842=T gnorm:=T 0.000930443810=T xtb:=T 6.7.1=T (edcfbbe)=T pbc="F F F"
C       -0.64576506       1.30348983      -0.36640547
C       -0.04675398       0.12621653      -0.24660667
C        1.38489839      -0.05634294      -0.12265584
C        2.27817417       0.88450848      -0.39984459
C        1.29030435       1.39396902       2.61086720
C        0.11762649       0.79742487       2.79311000
H       -0.10248417       2.23100604      -0.40955206
H       -1.71983951       1.36565094      -0.42464567
H       -0.66376939      -0.75906341      -0.21717190
H        1.73939582      -1.02920522       0.18376963
H        3.33208794       0.69776285      -0.27919427
H        1.99181844       1.85922065      -0.75238452
H        2.19512871       0.82862818       2.49212016
H        1.35007033       2.46901401       2.56218239
H       -0.78151582       1.37758665       2.92400315
H        0.03094121      -0.27376114       2.87194301
