16
Properties=species:S:1:pos:R:3 energy:=T -17.812259918842=T gnorm:=T 0.000930443810=T xtb:=T 6.7.1=T (edcfbbe)=T pbc="F F F"
C       -0.64876451       1.30119298      -0.37220044
C       -0.04889414       0.12465862      -0.24888493
C        1.38269469      -0.05576659      -0.11955881
C        2.27563727       0.88578053      -0.39577505
C        1.29640663       1.39408093       2.61832974
C        0.12096091       0.79939383       2.78744899
H       -0.10607418       2.22920605      -0.41200824
H       -1.72249791       1.36227653      -0.43621013
H       -0.66473733      -0.76152608      -0.22279567
H        1.73798026      -1.02862884       0.18623789
H        3.32958452       0.69990477      -0.27373280
H        1.98905399       1.85992275      -0.74965625
H        2.19887629       0.82759670       2.48959103
H        1.36098363       2.46889993       2.58924727
H       -0.77580508       1.38012601       2.92989795
H        0.02975392      -0.27182619       2.83983673
