16
Properties=species:S:1:pos:R:3 energy:=T -17.812259918842=T gnorm:=T 0.000930443810=T xtb:=T 6.7.1=T (edcfbbe)=T pbc="F F F"
C       -0.65476341       1.29659927      -0.38379038
C       -0.05317446       0.12154281      -0.25344146
C        1.37828728      -0.05461390      -0.11336476
C        2.27056349       0.88832464      -0.38763596
C        1.30861119       1.39430475       2.63325480
C        0.12762977       0.80333176       2.77612698
H       -0.11325420       2.22560606      -0.41692060
H       -1.72781471       1.35552772      -0.45933905
H       -0.66667322      -0.76645141      -0.23404321
H        1.73514913      -1.02747608       0.19117440
H        3.32457769       0.70418861      -0.26280985
H        1.98352509       1.86132697      -0.74419970
H        2.20637145       0.82553374       2.48453279
H        1.38281021       2.46867177       2.64337703
H       -0.76438360       1.38520474       2.94168754
H        0.02737936      -0.26795631       2.77562418
