16
Properties=species:S:1:pos:R:3 energy:=T -17.812259918842=T gnorm:=T 0.000930443810=T xtb:=T 6.7.1=T (edcfbbe)=T pbc="F F F"
C       -0.65776286       1.29430241      -0.38958535
C       -0.05531462       0.11998491      -0.25571972
C        1.37608358      -0.05403756      -0.11026773
C        2.26802660       0.88959670      -0.38356642
C        1.31471347       1.39441666       2.64071733
C        0.13096419       0.80530073       2.77046598
H       -0.11684422       2.22380606      -0.41937678
H       -1.73047311       1.35215332      -0.47090351
H       -0.66764117      -0.76891407      -0.23966697
H        1.73373357      -1.02689970       0.19364266
H        3.32207427       0.70633052      -0.25734838
H        1.98076064       1.86202908      -0.74147142
H        2.21011902       0.82450226       2.48200367
H        1.39372350       2.46855769       2.67044191
H       -0.75867286       1.38774411       2.94758234
H        0.02619207      -0.26602136       2.74351790
