16
Properties=species:S:1:pos:R:3 energy:=T -17.812259918842=T gnorm:=T 0.000930443810=T xtb:=T 6.7.1=T (edcfbbe)=T pbc="F F F"
C       -0.67492231       1.27830387      -0.40136915
C       -0.05810068       0.13857762      -0.21693518
C        1.39332473       0.02506920      -0.04507351
C        2.28269806       0.87764052      -0.40377743
C        1.26377956       1.37142818       2.63399523
C        0.08009862       0.84404267       2.77847808
H       -0.15823168       2.20772240      -0.44073270
H       -1.66911601       1.37188096      -0.45324993
H       -0.66881004      -0.79103481      -0.19329565
H        1.75798822      -1.02227345       0.21181886
H        3.36110904       0.70030145      -0.24694537
H        2.00832769       1.86625992      -0.71883237
H        2.26123872       0.81373111       2.51685755
H        1.41747810       2.49344824       2.61819286
H       -0.78534684       1.37832860       2.94821529
H        0.01195229      -0.29827539       2.85320847
