16
Properties=species:S:1:pos:R:3 energy:=T -17.812259918842=T gnorm:=T 0.000930443810=T xtb:=T 6.7.1=T (edcfbbe)=T pbc="F F F"
C       -0.67239080       1.35738846      -0.39952311
C       -0.00532591       0.07974608      -0.23469430
C        1.35001824      -0.00823752      -0.11667786
C        2.31447994       0.90139303      -0.44672198
C        1.29655112       1.36913287       2.63530434
C        0.11883845       0.83661999       2.77487971
H       -0.10939315       2.24724590      -0.41835272
H       -1.71076195       1.36759331      -0.44439401
H       -0.67785243      -0.76349743      -0.23429694
H        1.69459357      -0.98891847       0.19599146
H        3.38438098       0.72453653      -0.22679429
H        1.95774594       1.81090810      -0.78271489
H        2.17384035       0.81961351       2.50786392
H        1.38552467       2.51155779       2.61661520
H       -0.74988170       1.38403821       2.90219598
H        0.03536294      -0.25071006       2.74011514
