      -----------------------------------------------------------      
     |                   =====================                   |     
     |                           x T B                           |     
     |                   =====================                   |     
     |                         S. Grimme                         |     
     |          Mulliken Center for Theoretical Chemistry        |     
     |                    University of Bonn                     |     
      -----------------------------------------------------------      

   * xtb version 6.7.1pre (5071a88) compiled by 'Marcel@Raven' on 2024-07-23

   xtb is free software: you can redistribute it and/or modify it under
   the terms of the GNU Lesser General Public License as published by
   the Free Software Foundation, either version 3 of the License, or
   (at your option) any later version.
   
   xtb is distributed in the hope that it will be useful,
   but WITHOUT ANY WARRANTY; without even the implied warranty of
   MERCHANTABILITY or FITNESS FOR A PARTICULAR PURPOSE.  See the
   GNU Lesser General Public License for more details.
   
   Cite this work as:
   * C. Bannwarth, E. Caldeweyher, S. Ehlert, A. Hansen, P. Pracht,
     J. Seibert, S. Spicher, S. Grimme, WIREs Comput. Mol. Sci., 2020, 11,
     e01493. DOI: 10.1002/wcms.1493
   
   for GFN2-xTB:
   * C. Bannwarth, S. Ehlert and S. Grimme., J. Chem. Theory Comput., 2019,
     15, 1652-1671. DOI: 10.1021/acs.jctc.8b01176
   for GFN1-xTB:
   * S. Grimme, C. Bannwarth, P. Shushkov, J. Chem. Theory Comput., 2017,
     13, 1989-2009. DOI: 10.1021/acs.jctc.7b00118
   for GFN0-xTB:
   * P. Pracht, E. Caldeweyher, S. Ehlert, S. Grimme, ChemRxiv, 2019, preprint.
     DOI: 10.26434/chemrxiv.8326202.v1
   for GFN-FF:
   * S. Spicher and S. Grimme, Angew. Chem. Int. Ed., 2020, 59, 15665-15673.
     DOI: 10.1002/anie.202004239
   
   for ALPB and GBSA implicit solvation:
   * S. Ehlert, M. Stahn, S. Spicher, S. Grimme, J. Chem. Theory Comput.,
     2021, 17, 4250-4261. DOI: 10.1021/acs.jctc.1c00471
   
   for ddCOSMO and CPCM-X implicit solvation:
   * M. Stahn, S. Ehlert, S. Grimme, J. Phys. Chem. A,
     2023, XX, XXXX-XXXX. DOI: 10.1021/acs.jpca.3c04382
   
   for DFT-D4:
   * E. Caldeweyher, C. Bannwarth and S. Grimme, J. Chem. Phys., 2017,
     147, 034112. DOI: 10.1063/1.4993215
   * E. Caldeweyher, S. Ehlert, A. Hansen, H. Neugebauer, S. Spicher,
     C. Bannwarth and S. Grimme, J. Chem. Phys., 2019, 150, 154122.
     DOI: 10.1063/1.5090222
   * E. Caldeweyher, J.-M. Mewes, S. Ehlert and S. Grimme, Phys. Chem. Chem. Phys.
     2020, 22, 8499-8512. DOI: 10.1039/D0CP00502A
   
   for sTDA-xTB:
   * S. Grimme and C. Bannwarth, J. Chem. Phys., 2016, 145, 054103.
     DOI: 10.1063/1.4959605
   
   in the mass-spec context:
   * V. Asgeirsson, C. Bauer and S. Grimme, Chem. Sci., 2017, 8, 4879.
     DOI: 10.1039/c7sc00601b
   * J. Koopman and S. Grimme, ACS Omega 2019, 4, 12, 15120-15133.
     DOI: 10.1021/acsomega.9b02011
   
   for metadynamics refer to:
   * S. Grimme, J. Chem. Theory Comput., 2019, 155, 2847-2862
     DOI: 10.1021/acs.jctc.9b00143
   
   for SPH calculations refer to:
   * S. Spicher and S. Grimme, J. Chem. Theory Comput., 2021, 17, 1701-1714
     DOI: 10.1021/acs.jctc.0c01306
   
   for ONIOM refer to:
   * C. Plett, A. Katbashev, S. Ehlert, S. Grimme, M. Bursch,
     Phys. Chem. Chem. Phys., 2023, 25, 17860-17868. DOI: 10.1039/D3CP02178E
   
   for DIPRO refer to:
   * J. Kohn, N. Gildemeister, S. Grimme, D. Fazzi, A. Hansen,
     J. Chem. Phys., 2023, just accepted.
   
   for PTB refer to:
   * S. Grimme, M. Mueller, A. Hansen, J. Chem. Phys., 2023, 158, 124111.
     DOI: 10.1063/5.0137838
   
   with help from (in alphabetical order)
   P. Atkinson, C. Bannwarth, F. Bohle, G. Brandenburg, E. Caldeweyher
   M. Checinski, S. Dohm, S. Ehlert, S. Ehrlich, I. Gerasimov, C. Hölzer
   A. Katbashev, J. Kohn, J. Koopman, C. Lavigne, S. Lehtola, F. März, M. Müller,
   F. Musil, H. Neugebauer, J. Pisarek, C. Plett, P. Pracht, F. Pultar,
   J. Seibert, P. Shushkov, S. Spicher, M. Stahn, M. Steiner, T. Strunk,
   J. Stückrath, T. Rose, and J. Unsleber
   
 * started run on 2026/07/03 at 11:14:49.569     
   ID    Z sym.   atoms
    1    8 O      1, 4, 7
    2    1 H      2, 3, 5, 6, 8, 9

           -------------------------------------------------
          |                Calculation Setup                |
           -------------------------------------------------

          program call               : C:\Users\pc\Documents\Research\xtb_metadynamics\tools\xtb-6.7.1\bin\xtb.exe start.xyz --opt tight --gfn 2 --chrg 0 --uhf 0
          coordinate file            : start.xyz
          omp threads                :                    16


molecular fragmentation (1/2 indicates fragments):
111222222
# atoms in fragment 1/2:     3     6
 fragment masses (1/2) :       18.02       36.03
CMA distance (Bohr)    :   4.535
constraining FC (au)   :  0.0500

           -------------------------------------------------
          |                 G F N 2 - x T B                 |
           -------------------------------------------------

        Reference                      10.1021/acs.jctc.8b01176
      * Hamiltonian:
        H0-scaling (s, p, d)           1.850000    2.230000    2.230000
        zeta-weighting                 0.500000
      * Dispersion:
        s8                             2.700000
        a1                             0.520000
        a2                             5.000000
        s9                             5.000000
      * Repulsion:
        kExp                           1.500000    1.000000
        rExp                           1.000000
      * Coulomb:
        alpha                          2.000000
        third order                    shell-resolved
        anisotropic                    true
        a3                             3.000000
        a5                             4.000000
        cn-shift                       1.200000
        cn-exp                         4.000000
        max-rad                        5.000000


          ...................................................
          :                      SETUP                      :
          :.................................................:
          :  # basis functions                  18          :
          :  # atomic orbitals                  18          :
          :  # shells                           12          :
          :  # electrons                        24          :
          :  max. iterations                   250          :
          :  Hamiltonian                  GFN2-xTB          :
          :  restarted?                      false          :
          :  GBSA solvation                  false          :
          :  PC potential                    false          :
          :  electronic temp.          300.0000000     K    :
          :  accuracy                    1.0000000          :
          :  -> integral cutoff          0.2500000E+02      :
          :  -> integral neglect         0.1000000E-07      :
          :  -> SCF convergence          0.1000000E-05 Eh   :
          :  -> wf. convergence          0.1000000E-03 e    :
          :  Broyden damping             0.4000000          :
          :  net charge                          0          :
          :  unpaired electrons                  0          :
          ...................................................

 iter      E             dE          RMSdq      gap      omega  full diag
   1    -15.2912219 -0.152912E+02  0.420E+00   12.72       0.0  T
   2    -15.2970929 -0.587101E-02  0.237E+00   12.36       1.0  T
   3    -15.2980001 -0.907155E-03  0.439E-01   12.11       1.0  T
   4    -15.2982159 -0.215812E-03  0.855E-02   12.27       1.0  T
   5    -15.2982232 -0.730236E-05  0.583E-02   12.22       1.0  T
   6    -15.2982303 -0.708348E-05  0.108E-03   12.24      31.0  T
   7    -15.2982303  0.119010E-08  0.107E-03   12.24      31.1  T
   8    -15.2982303 -0.227582E-08  0.172E-05   12.24    1938.0  T
   9    -15.2982303 -0.266454E-13  0.141E-05   12.24    2357.3  T

   *** convergence criteria satisfied after 9 iterations ***

         #    Occupation            Energy/Eh            Energy/eV
      -------------------------------------------------------------
         1        2.0000           -0.6758490             -18.3908
       ...           ...                  ...                  ...
         6        2.0000           -0.5458234             -14.8526
         7        2.0000           -0.5104263             -13.8894
         8        2.0000           -0.5013075             -13.6413
         9        2.0000           -0.5013075             -13.6413
        10        2.0000           -0.4496965             -12.2369
        11        2.0000           -0.4302967             -11.7090
        12        2.0000           -0.4302967             -11.7090 (HOMO)
        13                          0.0196544               0.5348 (LUMO)
        14                          0.1107198               3.0128
        15                          0.1107198               3.0128
        16                          0.2609104               7.0997
        17                          0.2609104               7.0997
        18                          0.3352664               9.1231
      -------------------------------------------------------------
                  HL-Gap            0.4499512 Eh           12.2438 eV
             Fermi-level           -0.2053211 Eh           -5.5871 eV

 SCC (total)                   0 d,  0 h,  0 min,  0.005 sec
 SCC setup                      ...        0 min,  0.000 sec (  0.000%)
 Dispersion                     ...        0 min,  0.000 sec (  0.000%)
 classical contributions        ...        0 min,  0.000 sec (  0.000%)
 integral evaluation            ...        0 min,  0.001 sec ( 20.003%)
 iterations                     ...        0 min,  0.003 sec ( 59.999%)
 molecular gradient             ...        0 min,  0.001 sec ( 19.998%)
 printout                       ...        0 min,  0.000 sec (  0.000%)

         :::::::::::::::::::::::::::::::::::::::::::::::::::::
         ::                     SUMMARY                     ::
         :::::::::::::::::::::::::::::::::::::::::::::::::::::
         :: total energy             -15.193834290009 Eh    ::
         :: gradient norm              0.024562381207 Eh/a0 ::
         :: HOMO-LUMO gap             12.243795010174 eV    ::
         ::.................................................::
         :: SCC energy               -15.298228579004 Eh    ::
         :: -> isotropic ES            0.095213557377 Eh    ::
         :: -> anisotropic ES          0.008840749240 Eh    ::
         :: -> anisotropic XC         -0.002629670299 Eh    ::
         :: -> dispersion             -0.002032645591 Eh    ::
         :: repulsion energy           0.104394288995 Eh    ::
         :: add. restraining           0.000000000000 Eh    ::
         :: total charge              -0.000000000000 e     ::
         :::::::::::::::::::::::::::::::::::::::::::::::::::::

      ----------------------------------------------------------- 
     |                   =====================                   |
     |                        A N C O P T                        |
     |                   =====================                   |
     |               Approximate Normal Coordinate               |
     |                Rational Function Optimizer                |
      ----------------------------------------------------------- 
      ----------------------------------------------------------- 
     |                   =====================                   |
     |                        A N C O P T                        |
     |                   =====================                   |
     |               Approximate Normal Coordinate               |
     |                Rational Function Optimizer                |
      ----------------------------------------------------------- 

          ...................................................
          :                      SETUP                      :
          :.................................................:
          :   optimization level             tight          :
          :   max. optcycles                   200          :
          :   ANC micro-cycles                  20          :
          :   degrees of freedom                21          :
          :.................................................:
          :   RF solver                   davidson          :
          :   write xtbopt.log                true          :
          :   linear?                        false          :
          :   energy convergence         0.1000000E-05 Eh   :
          :   grad. convergence          0.8000000E-03 Eh/α :
          :   maxmium RF displ.          1.0000000          :
          :   Hlow (freq-cutoff)         0.1000000E-01      :
          :   Hmax (freq-cutoff)         5.0000000          :
          :   S6 in model hess.         20.0000000          :
          ...................................................

generating ANC from exact Hessian ...
Using Lindh-Hessian (1995)
 Shifting diagonal of input Hessian by   1.097453870239235E-002
 Lowest  eigenvalues of input Hessian
    0.010000    0.010000    0.010270    0.000000    0.010482    0.000000
    0.000000    0.000000    0.000000    0.011350    0.011350    0.000000
    0.012467    0.012467    0.013216    0.015306    0.015306    0.018395
 Highest eigenvalues
    1.247548    1.247612    1.247612    1.417438    1.417882    1.417882
 

........................................................................
.............................. CYCLE    1 ..............................
........................................................................

 iter      E             dE          RMSdq      gap      omega  full diag
   1    -15.2982303 -0.152982E+02  0.541E-07   12.24       0.0  T
   2    -15.2982303  0.710543E-14  0.233E-07   12.24  100000.0  T
   3    -15.2982303  0.177636E-14  0.837E-08   12.24  100000.0  T
     SCC iter.                  ...        0 min,  0.001 sec
     gradient                   ...        0 min,  0.000 sec
 * total energy  :   -15.1938343 Eh     change       -0.3765876E-12 Eh
   gradient norm :     0.0245623 Eh/α   predicted     0.0000000E+00 (-100.00%)
   displ. norm   :     0.5983809 α      lambda       -0.1092653E-01
   maximum displ.:     0.5647315 α      in ANC's #12, #11, #3, ...

........................................................................
.............................. CYCLE    2 ..............................
........................................................................

 iter      E             dE          RMSdq      gap      omega  full diag
   1    -15.2915603 -0.152916E+02  0.456E-01   11.88       0.0  T
   2    -15.2915889 -0.286267E-04  0.283E-01   11.88       1.0  T
   3    -15.2916030 -0.140582E-04  0.220E-02   11.87       1.5  T
   4    -15.2916034 -0.419924E-06  0.635E-03   11.86       5.2  T
   5    -15.2916034 -0.601309E-08  0.524E-04   11.86      63.6  T
   6    -15.2916034 -0.114792E-09  0.181E-04   11.86     184.1  T
     SCC iter.                  ...        0 min,  0.002 sec
     gradient                   ...        0 min,  0.000 sec
 * total energy  :   -15.1985300 Eh     change       -0.4695685E-02 Eh
   gradient norm :     0.0509398 Eh/α   predicted    -0.7419440E-02 (  58.01%)
   displ. norm   :     0.5905896 α      lambda       -0.8179399E-02
   maximum displ.:     0.4865282 α      in ANC's #3, #12, #11, ...

........................................................................
.............................. CYCLE    3 ..............................
........................................................................

 iter      E             dE          RMSdq      gap      omega  full diag
   1    -15.3055489 -0.153055E+02  0.353E-01   12.61       0.0  T
   2    -15.3056070 -0.580273E-04  0.206E-01   12.59       1.0  T
   3    -15.3056194 -0.124669E-04  0.451E-02   12.58       1.0  T
   4    -15.3056210 -0.157367E-05  0.789E-03   12.58       4.2  T
   5    -15.3056210 -0.442328E-08  0.109E-03   12.58      30.6  T
   6    -15.3056210 -0.771340E-09  0.187E-04   12.58     178.3  T
   7    -15.3056210 -0.342215E-10  0.548E-05   12.58     608.5  T
     SCC iter.                  ...        0 min,  0.002 sec
     gradient                   ...        0 min,  0.003 sec
 * total energy  :   -15.2025637 Eh     change       -0.4033764E-02 Eh
   gradient norm :     0.0239255 Eh/α   predicted    -0.5516190E-02 (  36.75%)
   displ. norm   :     0.4503171 α      lambda       -0.2377020E-02
   maximum displ.:     0.3991039 α      in ANC's #3, #12, #11, ...

........................................................................
.............................. CYCLE    4 ..............................
........................................................................

 iter      E             dE          RMSdq      gap      omega  full diag
   1    -15.3131138 -0.153131E+02  0.188E-01   13.10       0.0  T
   2    -15.3131318 -0.180732E-04  0.108E-01   13.09       1.0  T
   3    -15.3131352 -0.338470E-05  0.251E-02   13.08       1.3  T
   4    -15.3131357 -0.435782E-06  0.352E-03   13.08       9.5  T
   5    -15.3131357 -0.758021E-09  0.375E-04   13.08      88.9  T
   6    -15.3131357 -0.387299E-10  0.771E-05   13.08     432.5  T
     SCC iter.                  ...        0 min,  0.001 sec
     gradient                   ...        0 min,  0.001 sec
 * total energy  :   -15.2039195 Eh     change       -0.1355743E-02 Eh
   gradient norm :     0.0160994 Eh/α   predicted    -0.1429536E-02 (   5.44%)
   displ. norm   :     0.4785314 α      lambda       -0.1748406E-02
   maximum displ.:     0.3592896 α      in ANC's #12, #3, #11, ...

........................................................................
.............................. CYCLE    5 ..............................
........................................................................

 iter      E             dE          RMSdq      gap      omega  full diag
   1    -15.3092103 -0.153092E+02  0.171E-01   13.07       0.0  T
   2    -15.3092134 -0.316251E-05  0.107E-01   13.07       1.0  T
   3    -15.3092153 -0.182626E-05  0.671E-03   13.06       5.0  T
   4    -15.3092153 -0.219373E-07  0.188E-03   13.06      17.7  T
   5    -15.3092153 -0.782666E-09  0.148E-04   13.06     225.6  T
   6    -15.3092153 -0.129159E-10  0.250E-05   13.06    1335.7  T
     SCC iter.                  ...        0 min,  0.002 sec
     gradient                   ...        0 min,  0.001 sec
 * total energy  :   -15.2053300 Eh     change       -0.1410562E-02 Eh
   gradient norm :     0.0065825 Eh/α   predicted    -0.1074399E-02 ( -23.83%)
   displ. norm   :     0.6008045 α      lambda       -0.1484104E-02
   maximum displ.:     0.4573427 α      in ANC's #12, #3, #11, ...

........................................................................
.............................. CYCLE    6 ..............................
........................................................................

 iter      E             dE          RMSdq      gap      omega  full diag
   1    -15.3040722 -0.153041E+02  0.228E-01   13.08       0.0  T
   2    -15.3040792 -0.704309E-05  0.142E-01   13.09       1.0  T
   3    -15.3040824 -0.317139E-05  0.122E-02   13.09       2.7  T
   4    -15.3040825 -0.145708E-06  0.295E-03   13.08      11.3  T
   5    -15.3040825 -0.917408E-09  0.229E-04   13.08     145.5  T
   6    -15.3040825 -0.320508E-10  0.608E-05   13.08     548.5  T
     SCC iter.                  ...        0 min,  0.003 sec
     gradient                   ...        0 min,  0.000 sec
 * total energy  :   -15.2062605 Eh     change       -0.9304665E-03 Eh
   gradient norm :     0.0221559 Eh/α   predicted    -0.1009932E-02 (   8.54%)
   displ. norm   :     0.5495119 α      lambda       -0.1313061E-02
   maximum displ.:     0.4411877 α      in ANC's #3, #12, #11, ...

........................................................................
.............................. CYCLE    7 ..............................
........................................................................

 iter      E             dE          RMSdq      gap      omega  full diag
   1    -15.3095057 -0.153095E+02  0.110E-01   13.53       0.0  T
   2    -15.3095136 -0.790224E-05  0.608E-02   13.51       1.0  T
   3    -15.3095149 -0.135054E-05  0.159E-02   13.50       2.1  T
   4    -15.3095151 -0.153498E-06  0.223E-03   13.51      14.9  T
   5    -15.3095151 -0.319421E-09  0.173E-04   13.51     193.1  T
   6    -15.3095151 -0.753531E-11  0.448E-05   13.51     744.1  T
     SCC iter.                  ...        0 min,  0.005 sec
     gradient                   ...        0 min,  0.002 sec
 * total energy  :   -15.2071779 Eh     change       -0.9173434E-03 Eh
   gradient norm :     0.0071399 Eh/α   predicted    -0.8547767E-03 (  -6.82%)
   displ. norm   :     0.6699187 α      lambda       -0.8302302E-03
   maximum displ.:     0.5027562 α      in ANC's #3, #12, #7, ...

........................................................................
.............................. CYCLE    8 ..............................
........................................................................

 iter      E             dE          RMSdq      gap      omega  full diag
   1    -15.3106044 -0.153106E+02  0.104E-01   13.77       0.0  T
   2    -15.3106055 -0.106353E-05  0.653E-02   13.76       1.0  T
   3    -15.3106061 -0.623430E-06  0.422E-03   13.76       7.9  T
   4    -15.3106061 -0.806300E-08  0.119E-03   13.76      28.0  T
   5    -15.3106061 -0.465041E-09  0.140E-04   13.76     238.6  T
   6    -15.3106061 -0.114166E-10  0.602E-05   13.76     554.1  T
     SCC iter.                  ...        0 min,  0.004 sec
     gradient                   ...        0 min,  0.001 sec
 * total energy  :   -15.2078404 Eh     change       -0.6625170E-03 Eh
   gradient norm :     0.0094110 Eh/α   predicted    -0.6014107E-03 (  -9.22%)
   displ. norm   :     0.7786772 α      lambda       -0.8566735E-03
   maximum displ.:     0.5878993 α      in ANC's #3, #12, #2, ...

........................................................................
.............................. CYCLE    9 ..............................
........................................................................

 iter      E             dE          RMSdq      gap      omega  full diag
   1    -15.3115019 -0.153115E+02  0.137E-01   13.98       0.0  T
   2    -15.3115042 -0.231537E-05  0.854E-02   13.98       1.0  T
   3    -15.3115055 -0.127846E-05  0.753E-03   13.98       4.4  T
   4    -15.3115056 -0.368607E-07  0.222E-03   13.98      15.0  T
   5    -15.3115056 -0.191011E-08  0.290E-04   13.98     114.9  T
   6    -15.3115056 -0.481588E-10  0.132E-04   13.98     251.7  T
     SCC iter.                  ...        0 min,  0.003 sec
     gradient                   ...        0 min,  0.001 sec
 * total energy  :   -15.2083290 Eh     change       -0.4886716E-03 Eh
   gradient norm :     0.0158371 Eh/α   predicted    -0.6880586E-03 (  40.80%)
   displ. norm   :     0.5910532 α      lambda       -0.6132905E-03
   maximum displ.:     0.4616377 α      in ANC's #3, #12, #7, ...

........................................................................
.............................. CYCLE   10 ..............................
........................................................................

 iter      E             dE          RMSdq      gap      omega  full diag
   1    -15.3124450 -0.153124E+02  0.740E-02   14.11       0.0  T
   2    -15.3124459 -0.913856E-06  0.453E-02   14.11       1.0  T
   3    -15.3124463 -0.377282E-06  0.520E-03   14.11       6.4  T
   4    -15.3124463 -0.257497E-07  0.151E-03   14.11      22.0  T
   5    -15.3124463 -0.790482E-09  0.179E-04   14.11     186.1  T
   6    -15.3124463 -0.177085E-10  0.819E-05   14.11     407.0  T
     SCC iter.                  ...        0 min,  0.002 sec
     gradient                   ...        0 min,  0.000 sec
 * total energy  :   -15.2088000 Eh     change       -0.4709542E-03 Eh
   gradient norm :     0.0067320 Eh/α   predicted    -0.4137770E-03 ( -12.14%)
   displ. norm   :     0.7521129 α      lambda       -0.4559250E-03
   maximum displ.:     0.5945969 α      in ANC's #3, #12, #4, ...

........................................................................
.............................. CYCLE   11 ..............................
........................................................................

 iter      E             dE          RMSdq      gap      omega  full diag
   1    -15.3133744 -0.153134E+02  0.637E-02   14.22       0.0  T
   2    -15.3133753 -0.880375E-06  0.390E-02   14.22       1.0  T
   3    -15.3133755 -0.238134E-06  0.511E-03   14.21       6.5  T
   4    -15.3133756 -0.302305E-07  0.860E-04   14.21      38.8  T
   5    -15.3133756 -0.247020E-10  0.652E-05   14.21     511.3  T
     SCC iter.                  ...        0 min,  0.001 sec
     gradient                   ...        0 min,  0.001 sec
 * total energy  :   -15.2091939 Eh     change       -0.3938810E-03 Eh
   gradient norm :     0.0059918 Eh/α   predicted    -0.3569163E-03 (  -9.38%)
   displ. norm   :     0.8332104 α      lambda       -0.4139368E-03
   maximum displ.:     0.6518156 α      in ANC's #3, #12, #4, ...

........................................................................
.............................. CYCLE   12 ..............................
........................................................................

 iter      E             dE          RMSdq      gap      omega  full diag
   1    -15.3122991 -0.153123E+02  0.925E-02   14.19       0.0  T
   2    -15.3123002 -0.108692E-05  0.578E-02   14.20       1.0  T
   3    -15.3123007 -0.511005E-06  0.470E-03   14.20       7.1  T
   4    -15.3123007 -0.225488E-07  0.121E-03   14.20      27.5  T
   5    -15.3123007 -0.203032E-09  0.112E-04   14.20     297.7  T
   6    -15.3123007 -0.503597E-11  0.448E-05   14.20     743.3  T
     SCC iter.                  ...        0 min,  0.001 sec
     gradient                   ...        0 min,  0.001 sec
 * total energy  :   -15.2095414 Eh     change       -0.3474841E-03 Eh
   gradient norm :     0.0074268 Eh/α   predicted    -0.3506365E-03 (   0.91%)
   displ. norm   :     0.8207743 α      lambda       -0.4981695E-03
   maximum displ.:     0.6499913 α      in ANC's #3, #12, #4, ...

........................................................................
.............................. CYCLE   13 ..............................
........................................................................

 iter      E             dE          RMSdq      gap      omega  full diag
   1    -15.3114026 -0.153114E+02  0.147E-01   13.91       0.0  T
   2    -15.3114128 -0.101315E-04  0.845E-02   13.93       1.0  T
   3    -15.3114148 -0.199531E-05  0.190E-02   13.93       1.8  T
   4    -15.3114150 -0.259217E-06  0.304E-03   13.93      11.0  T
   5    -15.3114150 -0.856446E-09  0.357E-04   13.93      93.5  T
   6    -15.3114150 -0.527205E-10  0.985E-05   13.93     338.5  T
     SCC iter.                  ...        0 min,  0.001 sec
     gradient                   ...        0 min,  0.001 sec
 * total energy  :   -15.2094816 Eh     change        0.5975890E-04 Eh
   gradient norm :     0.0246224 Eh/α   predicted    -0.4168844E-03 (-797.61%)
   displ. norm   :     0.2836999 α      lambda       -0.9326241E-03
   maximum displ.:     0.2383066 α      in ANC's #3, #12, #10, ...

........................................................................
.............................. CYCLE   14 ..............................
........................................................................

 iter      E             dE          RMSdq      gap      omega  full diag
   1    -15.3150490 -0.153150E+02  0.120E-01   14.21       0.0  T
   2    -15.3150583 -0.925510E-05  0.664E-02   14.22       1.0  T
   3    -15.3150599 -0.163575E-05  0.172E-02   14.21       1.9  T
   4    -15.3150601 -0.184873E-06  0.270E-03   14.22      12.3  T
   5    -15.3150601 -0.418327E-09  0.195E-04   14.22     171.2  T
   6    -15.3150601 -0.163052E-10  0.436E-05   14.22     764.0  T
     SCC iter.                  ...        0 min,  0.002 sec
     gradient                   ...        0 min,  0.001 sec
 * total energy  :   -15.2099151 Eh     change       -0.4334772E-03 Eh
   gradient norm :     0.0090791 Eh/α   predicted    -0.5038456E-03 (  16.23%)
   displ. norm   :     0.5793317 α      lambda       -0.4687441E-03
   maximum displ.:     0.4315805 α      in ANC's #3, #12, #7, ...

........................................................................
.............................. CYCLE   15 ..............................
........................................................................

 iter      E             dE          RMSdq      gap      omega  full diag
   1    -15.3102960 -0.153103E+02  0.136E-01   13.99       0.0  T
   2    -15.3103033 -0.736226E-05  0.796E-02   14.00       1.0  T
   3    -15.3103049 -0.152146E-05  0.162E-02   14.01       2.1  T
   4    -15.3103051 -0.205553E-06  0.286E-03   14.01      11.7  T
   5    -15.3103051 -0.696680E-09  0.238E-04   14.01     140.2  T
   6    -15.3103051 -0.305658E-10  0.943E-05   14.01     353.3  T
     SCC iter.                  ...        0 min,  0.001 sec
     gradient                   ...        0 min,  0.000 sec
 * total energy  :   -15.2099173 Eh     change       -0.2212198E-05 Eh
   gradient norm :     0.0202762 Eh/α   predicted    -0.3130402E-03 (*******%)
   displ. norm   :     0.3309382 α      lambda       -0.5696057E-03
   maximum displ.:     0.2800575 α      in ANC's #3, #12, #4, ...

........................................................................
.............................. CYCLE   16 ..............................
........................................................................

 iter      E             dE          RMSdq      gap      omega  full diag
   1    -15.3133385 -0.153133E+02  0.743E-02   14.25       0.0  T
   2    -15.3133420 -0.344351E-05  0.413E-02   14.24       1.0  T
   3    -15.3133427 -0.694177E-06  0.105E-02   14.23       3.2  T
   4    -15.3133428 -0.806487E-07  0.207E-03   14.24      16.1  T
   5    -15.3133428 -0.779778E-09  0.172E-04   14.24     193.3  T
   6    -15.3133428 -0.144844E-10  0.779E-05   14.24     427.7  T
     SCC iter.                  ...        0 min,  0.003 sec
     gradient                   ...        0 min,  0.001 sec
 * total energy  :   -15.2102539 Eh     change       -0.3365938E-03 Eh
   gradient norm :     0.0042648 Eh/α   predicted    -0.3159927E-03 (  -6.12%)
   displ. norm   :     0.6742026 α      lambda       -0.2784730E-03
   maximum displ.:     0.5477839 α      in ANC's #3, #12, #4, ...

........................................................................
.............................. CYCLE   17 ..............................
........................................................................

 iter      E             dE          RMSdq      gap      omega  full diag
   1    -15.3141325 -0.153141E+02  0.857E-02   14.20       0.0  T
   2    -15.3141342 -0.166744E-05  0.527E-02   14.19       1.0  T
   3    -15.3141350 -0.794180E-06  0.705E-03   14.19       4.7  T
   4    -15.3141350 -0.419705E-07  0.210E-03   14.19      15.9  T
   5    -15.3141350 -0.168484E-08  0.256E-04   14.19     130.2  T
   6    -15.3141350 -0.353886E-10  0.114E-04   14.19     292.2  T
     SCC iter.                  ...        0 min,  0.003 sec
     gradient                   ...        0 min,  0.000 sec
 * total energy  :   -15.2102964 Eh     change       -0.4251728E-04 Eh
   gradient norm :     0.0186431 Eh/α   predicted    -0.2025251E-03 ( 376.34%)
   displ. norm   :     0.4600469 α      lambda       -0.4600819E-03
   maximum displ.:     0.3689274 α      in ANC's #3, #12, #4, ...

........................................................................
.............................. CYCLE   18 ..............................
........................................................................

 iter      E             dE          RMSdq      gap      omega  full diag
   1    -15.3133792 -0.153134E+02  0.755E-02   14.17       0.0  T
   2    -15.3133802 -0.990987E-06  0.468E-02   14.17       1.0  T
   3    -15.3133808 -0.568594E-06  0.516E-03   14.17       6.5  T
   4    -15.3133808 -0.158346E-07  0.151E-03   14.17      22.0  T
   5    -15.3133808 -0.106653E-08  0.216E-04   14.17     154.0  T
   6    -15.3133808 -0.255493E-10  0.944E-05   14.17     353.0  T
     SCC iter.                  ...        0 min,  0.001 sec
     gradient                   ...        0 min,  0.001 sec
 * total energy  :   -15.2106033 Eh     change       -0.3069023E-03 Eh
   gradient norm :     0.0033773 Eh/α   predicted    -0.2787232E-03 (  -9.18%)
   displ. norm   :     0.7412505 α      lambda       -0.2396063E-03
   maximum displ.:     0.6046763 α      in ANC's #3, #12, #4, ...

........................................................................
.............................. CYCLE   19 ..............................
........................................................................

 iter      E             dE          RMSdq      gap      omega  full diag
   1    -15.3122789 -0.153123E+02  0.105E-01   14.09       0.0  T
   2    -15.3122804 -0.149609E-05  0.657E-02   14.09       1.0  T
   3    -15.3122811 -0.785939E-06  0.501E-03   14.08       6.7  T
   4    -15.3122812 -0.207948E-07  0.138E-03   14.09      24.1  T
   5    -15.3122812 -0.282022E-09  0.118E-04   14.09     281.5  T
   6    -15.3122812 -0.645883E-11  0.482E-05   14.09     692.2  T
     SCC iter.                  ...        0 min,  0.003 sec
     gradient                   ...        0 min,  0.001 sec
 * total energy  :   -15.2107996 Eh     change       -0.1962807E-03 Eh
   gradient norm :     0.0077789 Eh/α   predicted    -0.1856181E-03 (  -5.43%)
   displ. norm   :     0.6089584 α      lambda       -0.1908078E-03
   maximum displ.:     0.4999826 α      in ANC's #3, #12, #4, ...

........................................................................
.............................. CYCLE   20 ..............................
........................................................................

 iter      E             dE          RMSdq      gap      omega  full diag
   1    -15.3118798 -0.153119E+02  0.101E-01   14.07       0.0  T
   2    -15.3118812 -0.140724E-05  0.631E-02   14.07       1.0  T
   3    -15.3118820 -0.724858E-06  0.484E-03   14.06       6.9  T
   4    -15.3118820 -0.204625E-07  0.130E-03   14.06      25.6  T
   5    -15.3118820 -0.199257E-09  0.982E-05   14.06     339.4  T
   6    -15.3118820 -0.412115E-11  0.344E-05   14.06     968.7  T
     SCC iter.                  ...        0 min,  0.001 sec
     gradient                   ...        0 min,  0.001 sec
 * total energy  :   -15.2109355 Eh     change       -0.1359323E-03 Eh
   gradient norm :     0.0109056 Eh/α   predicted    -0.1307933E-03 (  -3.78%)
   displ. norm   :     0.4710944 α      lambda       -0.1733207E-03
   maximum displ.:     0.3795510 α      in ANC's #3, #12, #4, ...
 * RMSD in coord.:     3.8374623 α      energy gain  -0.1710123E-01 Eh

generating ANC from exact Hessian ...
Using Lindh-Hessian (1995)
 Shifting diagonal of input Hessian by   9.997652651044568E-003
 Lowest  eigenvalues of input Hessian
    0.000000    0.000000    0.000000    0.000000    0.000000    0.000000
    0.010000    0.010000    0.010003    0.010007    0.010007    0.010009
    0.010402    0.010425    0.010426    0.010478    0.010501    0.010503
 Highest eigenvalues
    1.211259    1.216541    1.220687    1.423316    1.431826    1.441327
 

........................................................................
.............................. CYCLE   21 ..............................
........................................................................

 iter      E             dE          RMSdq      gap      omega  full diag
   1    -15.3130174 -0.153130E+02  0.541E-02   14.22       0.0  T
   2    -15.3130179 -0.502315E-06  0.334E-02   14.22       1.0  T
   3    -15.3130181 -0.204531E-06  0.357E-03   14.22       9.3  T
   4    -15.3130181 -0.129194E-07  0.923E-04   14.22      36.1  T
   5    -15.3130181 -0.935731E-10  0.687E-05   14.22     485.4  T
     SCC iter.                  ...        0 min,  0.001 sec
     gradient                   ...        0 min,  0.000 sec
 * total energy  :   -15.2110705 Eh     change       -0.1350298E-03 Eh
   gradient norm :     0.0062584 Eh/α   predicted     0.0000000E+00 (-100.00%)
   displ. norm   :     0.1309797 α      lambda       -0.2171067E-03
   maximum displ.:     0.1092242 α      in ANC's #6, #5, #3, ...

........................................................................
.............................. CYCLE   22 ..............................
........................................................................

 iter      E             dE          RMSdq      gap      omega  full diag
   1    -15.3128277 -0.153128E+02  0.147E-01   14.12       0.0  T
   2    -15.3128300 -0.235656E-05  0.924E-02   14.12       1.0  T
   3    -15.3128315 -0.148378E-05  0.504E-03   14.11       6.6  T
   4    -15.3128315 -0.213879E-08  0.832E-04   14.12      40.0  T
   5    -15.3128315 -0.465038E-09  0.121E-04   14.12     275.9  T
     SCC iter.                  ...        0 min,  0.001 sec
     gradient                   ...        0 min,  0.001 sec
 * total energy  :   -15.2112469 Eh     change       -0.1763331E-03 Eh
   gradient norm :     0.0076457 Eh/α   predicted    -0.1104141E-03 ( -37.38%)
   displ. norm   :     0.1980732 α      lambda       -0.2637771E-03
   maximum displ.:     0.1326238 α      in ANC's #6, #5, #4, ...

........................................................................
.............................. CYCLE   23 ..............................
........................................................................

 iter      E             dE          RMSdq      gap      omega  full diag
   1    -15.3097672 -0.153098E+02  0.230E-01   13.87       0.0  T
   2    -15.3097731 -0.595632E-05  0.144E-01   13.87       1.0  T
   3    -15.3097765 -0.333515E-05  0.925E-03   13.86       3.6  T
   4    -15.3097765 -0.553385E-07  0.257E-03   13.86      13.0  T
   5    -15.3097765 -0.102836E-08  0.200E-04   13.86     166.8  T
   6    -15.3097765 -0.266098E-10  0.318E-05   13.86    1047.0  T
     SCC iter.                  ...        0 min,  0.002 sec
     gradient                   ...        0 min,  0.000 sec
 * total energy  :   -15.2113416 Eh     change       -0.9471081E-04 Eh
   gradient norm :     0.0185767 Eh/α   predicted    -0.1370617E-03 (  44.72%)
   displ. norm   :     0.0773543 α      lambda       -0.3668591E-03
   maximum displ.:     0.0632793 α      in ANC's #5, #6, #12, ...

........................................................................
.............................. CYCLE   24 ..............................
........................................................................

 iter      E             dE          RMSdq      gap      omega  full diag
   1    -15.3121158 -0.153121E+02  0.104E-01   14.15       0.0  T
   2    -15.3121195 -0.377061E-05  0.619E-02   14.16       1.0  T
   3    -15.3121204 -0.865952E-06  0.115E-02   14.17       2.9  T
   4    -15.3121205 -0.113449E-06  0.189E-03   14.17      17.6  T
   5    -15.3121205 -0.178167E-09  0.130E-04   14.17     256.7  T
   6    -15.3121205 -0.324718E-11  0.416E-05   14.17     802.2  T
     SCC iter.                  ...        0 min,  0.002 sec
     gradient                   ...        0 min,  0.000 sec
 * total energy  :   -15.2115187 Eh     change       -0.1770638E-03 Eh
   gradient norm :     0.0103016 Eh/α   predicted    -0.1845271E-03 (   4.22%)
   displ. norm   :     0.0734691 α      lambda       -0.2618431E-03
   maximum displ.:     0.0486335 α      in ANC's #6, #4, #3, ...

........................................................................
.............................. CYCLE   25 ..............................
........................................................................

 iter      E             dE          RMSdq      gap      omega  full diag
   1    -15.3162600 -0.153163E+02  0.990E-02   14.21       0.0  T
   2    -15.3162629 -0.295089E-05  0.594E-02   14.20       1.0  T
   3    -15.3162637 -0.772521E-06  0.997E-03   14.20       3.3  T
   4    -15.3162638 -0.916250E-07  0.187E-03   14.20      17.8  T
   5    -15.3162638 -0.191196E-09  0.125E-04   14.20     267.0  T
   6    -15.3162638 -0.293809E-11  0.470E-05   14.20     709.6  T
     SCC iter.                  ...        0 min,  0.001 sec
     gradient                   ...        0 min,  0.000 sec
 * total energy  :   -15.2116217 Eh     change       -0.1030719E-03 Eh
   gradient norm :     0.0062531 Eh/α   predicted    -0.1316265E-03 (  27.70%)
   displ. norm   :     0.2237203 α      lambda       -0.3290176E-03
   maximum displ.:     0.1463027 α      in ANC's #6, #5, #3, ...

........................................................................
.............................. CYCLE   26 ..............................
........................................................................

 iter      E             dE          RMSdq      gap      omega  full diag
   1    -15.3115868 -0.153116E+02  0.263E-01   13.83       0.0  T
   2    -15.3115960 -0.926980E-05  0.164E-01   13.83       1.0  T
   3    -15.3116004 -0.433837E-05  0.133E-02   13.83       2.5  T
   4    -15.3116006 -0.178951E-06  0.331E-03   13.83      10.1  T
   5    -15.3116006 -0.874721E-09  0.258E-04   13.83     129.0  T
   6    -15.3116006 -0.360636E-10  0.575E-05   13.83     579.4  T
     SCC iter.                  ...        0 min,  0.004 sec
     gradient                   ...        0 min,  0.001 sec
 * total energy  :   -15.2117470 Eh     change       -0.1252234E-03 Eh
   gradient norm :     0.0181629 Eh/α   predicted    -0.1727437E-03 (  37.95%)
   displ. norm   :     0.1152994 α      lambda       -0.4399525E-03
   maximum displ.:     0.1105879 α      in ANC's #4, #11, #2, ...

........................................................................
.............................. CYCLE   27 ..............................
........................................................................

 iter      E             dE          RMSdq      gap      omega  full diag
   1    -15.3123711 -0.153124E+02  0.158E-01   13.94       0.0  T
   2    -15.3123804 -0.925452E-05  0.930E-02   13.96       1.0  T
   3    -15.3123825 -0.210603E-05  0.179E-02   13.97       1.9  T
   4    -15.3123828 -0.264323E-06  0.316E-03   13.97      10.5  T
   5    -15.3123828 -0.515973E-09  0.290E-04   13.97     114.9  T
   6    -15.3123828 -0.303011E-10  0.858E-05   13.97     388.4  T
     SCC iter.                  ...        0 min,  0.001 sec
     gradient                   ...        0 min,  0.000 sec
 * total energy  :   -15.2116906 Eh     change        0.5636171E-04 Eh
   gradient norm :     0.0218725 Eh/α   predicted    -0.2228999E-03 (-495.48%)
   displ. norm   :     0.1477335 α      lambda       -0.7815072E-03
   maximum displ.:     0.1025927 α      in ANC's #4, #6, #11, ...

........................................................................
.............................. CYCLE   28 ..............................
........................................................................

 iter      E             dE          RMSdq      gap      omega  full diag
   1    -15.3170626 -0.153171E+02  0.199E-01   14.33       0.0  T
   2    -15.3170751 -0.124294E-04  0.119E-01   14.34       1.0  T
   3    -15.3170782 -0.316494E-05  0.206E-02   14.34       1.6  T
   4    -15.3170786 -0.386981E-06  0.387E-03   14.34       8.6  T
   5    -15.3170786 -0.799417E-09  0.317E-04   14.34     105.3  T
   6    -15.3170786 -0.195115E-10  0.941E-05   14.34     354.0  T
     SCC iter.                  ...        0 min,  0.001 sec
     gradient                   ...        0 min,  0.000 sec
 * total energy  :   -15.2117120 Eh     change       -0.2142891E-04 Eh
   gradient norm :     0.0141361 Eh/α   predicted    -0.3992818E-03 (1763.29%)
   displ. norm   :     0.1404568 α      lambda       -0.4614866E-03
   maximum displ.:     0.1134043 α      in ANC's #6, #5, #3, ...

........................................................................
.............................. CYCLE   29 ..............................
........................................................................

 iter      E             dE          RMSdq      gap      omega  full diag
   1    -15.3135619 -0.153136E+02  0.179E-01   14.03       0.0  T
   2    -15.3135685 -0.656416E-05  0.110E-01   14.02       1.0  T
   3    -15.3135706 -0.211601E-05  0.137E-02   14.02       2.4  T
   4    -15.3135708 -0.200899E-06  0.260E-03   14.02      12.8  T
   5    -15.3135708 -0.308395E-09  0.208E-04   14.02     160.0  T
   6    -15.3135708 -0.234976E-10  0.595E-05   14.02     559.8  T
     SCC iter.                  ...        0 min,  0.002 sec
     gradient                   ...        0 min,  0.001 sec
 * total energy  :   -15.2119901 Eh     change       -0.2780706E-03 Eh
   gradient norm :     0.0087897 Eh/α   predicted    -0.2352968E-03 ( -15.38%)
   displ. norm   :     0.0752744 α      lambda       -0.1128643E-03
   maximum displ.:     0.0434400 α      in ANC's #5, #6, #4, ...

........................................................................
.............................. CYCLE   30 ..............................
........................................................................

 iter      E             dE          RMSdq      gap      omega  full diag
   1    -15.3125997 -0.153126E+02  0.853E-02   13.97       0.0  T
   2    -15.3126007 -0.103764E-05  0.531E-02   13.98       1.0  T
   3    -15.3126012 -0.472187E-06  0.458E-03   13.97       7.3  T
   4    -15.3126012 -0.219745E-07  0.116E-03   13.98      28.8  T
   5    -15.3126012 -0.947349E-10  0.823E-05   13.98     405.2  T
   6    -15.3126012 -0.186162E-11  0.255E-05   13.98    1306.9  T
     SCC iter.                  ...        0 min,  0.002 sec
     gradient                   ...        0 min,  0.001 sec
 * total energy  :   -15.2120682 Eh     change       -0.7810569E-04 Eh
   gradient norm :     0.0098223 Eh/α   predicted    -0.5675294E-04 ( -27.34%)
   displ. norm   :     0.0758158 α      lambda       -0.1744043E-03
   maximum displ.:     0.0382416 α      in ANC's #2, #5, #4, ...

........................................................................
.............................. CYCLE   31 ..............................
........................................................................

 iter      E             dE          RMSdq      gap      omega  full diag
   1    -15.3145054 -0.153145E+02  0.819E-02   14.11       0.0  T
   2    -15.3145072 -0.179671E-05  0.496E-02   14.11       1.0  T
   3    -15.3145077 -0.494963E-06  0.763E-03   14.11       4.4  T
   4    -15.3145078 -0.569416E-07  0.139E-03   14.11      24.1  T
   5    -15.3145078 -0.843290E-10  0.925E-05   14.11     360.4  T
   6    -15.3145078 -0.119726E-11  0.304E-05   14.11    1097.6  T
     SCC iter.                  ...        0 min,  0.002 sec
     gradient                   ...        0 min,  0.000 sec
 * total energy  :   -15.2121564 Eh     change       -0.8817205E-04 Eh
   gradient norm :     0.0089967 Eh/α   predicted    -0.8770342E-04 (  -0.53%)
   displ. norm   :     0.2426200 α      lambda       -0.2922220E-03
   maximum displ.:     0.1595275 α      in ANC's #5, #6, #2, ...

........................................................................
.............................. CYCLE   32 ..............................
........................................................................

 iter      E             dE          RMSdq      gap      omega  full diag
   1    -15.3088161 -0.153088E+02  0.261E-01   13.92       0.0  T
   2    -15.3088261 -0.100582E-04  0.162E-01   13.94       1.0  T
   3    -15.3088306 -0.446615E-05  0.143E-02   13.94       2.3  T
   4    -15.3088308 -0.215739E-06  0.346E-03   13.94       9.6  T
   5    -15.3088308 -0.779048E-09  0.276E-04   13.94     120.6  T
   6    -15.3088308 -0.341931E-10  0.757E-05   13.94     440.6  T
     SCC iter.                  ...        0 min,  0.001 sec
     gradient                   ...        0 min,  0.001 sec
 * total energy  :   -15.2121483 Eh     change        0.8115704E-05 Eh
   gradient norm :     0.0218639 Eh/α   predicted    -0.1547109E-03 (*******%)
   displ. norm   :     0.0864789 α      lambda       -0.6437522E-03
   maximum displ.:     0.0634225 α      in ANC's #5, #4, #12, ...

........................................................................
.............................. CYCLE   33 ..............................
........................................................................

 iter      E             dE          RMSdq      gap      omega  full diag
   1    -15.3151455 -0.153151E+02  0.122E-01   14.02       0.0  T
   2    -15.3151524 -0.694421E-05  0.705E-02   14.00       1.0  T
   3    -15.3151539 -0.147264E-05  0.154E-02   14.00       2.2  T
   4    -15.3151541 -0.181180E-06  0.287E-03   14.00      11.6  T
   5    -15.3151541 -0.678513E-09  0.212E-04   14.00     157.4  T
   6    -15.3151541 -0.171205E-10  0.839E-05   14.00     397.4  T
     SCC iter.                  ...        0 min,  0.001 sec
     gradient                   ...        0 min,  0.000 sec
 * total energy  :   -15.2123408 Eh     change       -0.1925569E-03 Eh
   gradient norm :     0.0111809 Eh/α   predicted    -0.3242819E-03 (  68.41%)
   displ. norm   :     0.0867181 α      lambda       -0.2999267E-03
   maximum displ.:     0.0576165 α      in ANC's #12, #6, #3, ...

........................................................................
.............................. CYCLE   34 ..............................
........................................................................

 iter      E             dE          RMSdq      gap      omega  full diag
   1    -15.3176497 -0.153176E+02  0.111E-01   14.31       0.0  T
   2    -15.3176555 -0.580441E-05  0.638E-02   14.31       1.0  T
   3    -15.3176568 -0.129349E-05  0.141E-02   14.31       2.4  T
   4    -15.3176569 -0.156278E-06  0.282E-03   14.31      11.8  T
   5    -15.3176570 -0.139130E-08  0.259E-04   14.31     128.8  T
   6    -15.3176570 -0.307896E-10  0.114E-04   14.31     292.9  T
     SCC iter.                  ...        0 min,  0.001 sec
     gradient                   ...        0 min,  0.001 sec
 * total energy  :   -15.2122066 Eh     change        0.1341594E-03 Eh
   gradient norm :     0.0174132 Eh/α   predicted    -0.1510924E-03 (-212.62%)
   displ. norm   :     0.1206735 α      lambda       -0.4628425E-03
   maximum displ.:     0.0758934 α      in ANC's #6, #5, #2, ...

........................................................................
.............................. CYCLE   35 ..............................
........................................................................

 iter      E             dE          RMSdq      gap      omega  full diag
   1    -15.3143957 -0.153144E+02  0.141E-01   14.09       0.0  T
   2    -15.3144003 -0.453870E-05  0.860E-02   14.08       1.0  T
   3    -15.3144017 -0.146522E-05  0.116E-02   14.08       2.9  T
   4    -15.3144019 -0.138050E-06  0.238E-03   14.08      14.0  T
   5    -15.3144019 -0.570708E-09  0.209E-04   14.08     159.4  T
   6    -15.3144019 -0.197868E-10  0.882E-05   14.08     377.8  T
     SCC iter.                  ...        0 min,  0.001 sec
     gradient                   ...        0 min,  0.001 sec
 * total energy  :   -15.2124708 Eh     change       -0.2641294E-03 Eh
   gradient norm :     0.0066971 Eh/α   predicted    -0.2347938E-03 ( -11.11%)
   displ. norm   :     0.2129049 α      lambda       -0.3427862E-03
   maximum displ.:     0.1202995 α      in ANC's #10, #6, #2, ...

........................................................................
.............................. CYCLE   36 ..............................
........................................................................

 iter      E             dE          RMSdq      gap      omega  full diag
   1    -15.3106824 -0.153107E+02  0.198E-01   13.44       0.0  T
   2    -15.3106927 -0.102958E-04  0.121E-01   13.43       1.0  T
   3    -15.3106972 -0.453686E-05  0.179E-02   13.43       1.9  T
   4    -15.3106975 -0.286933E-06  0.553E-03   13.43       6.0  T
   5    -15.3106975 -0.107084E-07  0.638E-04   13.43      52.3  T
   6    -15.3106975 -0.260576E-09  0.274E-04   13.43     121.7  T
     SCC iter.                  ...        0 min,  0.003 sec
     gradient                   ...        0 min,  0.001 sec
 * total energy  :   -15.2112651 Eh     change        0.1205726E-02 Eh
   gradient norm :     0.0485387 Eh/α   predicted    -0.1791628E-03 (-114.86%)
   displ. norm   :     0.1449603 α      lambda       -0.2703922E-02
   maximum displ.:     0.1133272 α      in ANC's #10, #7, #6, ...

........................................................................
.............................. CYCLE   37 ..............................
........................................................................

 iter      E             dE          RMSdq      gap      omega  full diag
   1    -15.3140167 -0.153140E+02  0.144E-01   14.06       0.0  T
   2    -15.3140244 -0.777289E-05  0.864E-02   14.07       1.0  T
   3    -15.3140278 -0.334344E-05  0.162E-02   14.07       2.1  T
   4    -15.3140280 -0.238873E-06  0.503E-03   14.07       6.6  T
   5    -15.3140280 -0.112104E-07  0.578E-04   14.07      57.7  T
   6    -15.3140280 -0.265159E-09  0.235E-04   14.07     142.0  T
     SCC iter.                  ...        0 min,  0.000 sec
     gradient                   ...        0 min,  0.001 sec
 * total energy  :   -15.2125262 Eh     change       -0.1261152E-02 Eh
   gradient norm :     0.0088863 Eh/α   predicted    -0.1380370E-02 (   9.45%)
   displ. norm   :     0.1243615 α      lambda       -0.2471247E-03
   maximum displ.:     0.0783443 α      in ANC's #11, #12, #4, ...

........................................................................
.............................. CYCLE   38 ..............................
........................................................................

 iter      E             dE          RMSdq      gap      omega  full diag
   1    -15.3153605 -0.153154E+02  0.111E-01   13.99       0.0  T
   2    -15.3153654 -0.490015E-05  0.646E-02   13.99       1.0  T
   3    -15.3153668 -0.141049E-05  0.130E-02   13.98       2.6  T
   4    -15.3153669 -0.150622E-06  0.328E-03   13.98      10.2  T
   5    -15.3153669 -0.329108E-08  0.356E-04   13.98      93.5  T
   6    -15.3153669 -0.632312E-10  0.157E-04   13.98     212.5  T
     SCC iter.                  ...        0 min,  0.002 sec
     gradient                   ...        0 min,  0.001 sec
 * total energy  :   -15.2122497 Eh     change        0.2764538E-03 Eh
   gradient norm :     0.0250112 Eh/α   predicted    -0.1254741E-03 (-145.39%)
   displ. norm   :     0.0938416 α      lambda       -0.6277768E-03
   maximum displ.:     0.0621155 α      in ANC's #12, #11, #9, ...

........................................................................
.............................. CYCLE   39 ..............................
........................................................................

 iter      E             dE          RMSdq      gap      omega  full diag
   1    -15.3156831 -0.153157E+02  0.846E-02   14.13       0.0  T
   2    -15.3156861 -0.292291E-05  0.492E-02   14.14       1.0  T
   3    -15.3156869 -0.822102E-06  0.999E-03   14.16       3.3  T
   4    -15.3156870 -0.898155E-07  0.257E-03   14.15      13.0  T
   5    -15.3156870 -0.202719E-08  0.267E-04   14.15     124.7  T
   6    -15.3156870 -0.347793E-10  0.118E-04   14.15     283.6  T
     SCC iter.                  ...        0 min,  0.007 sec
     gradient                   ...        0 min,  0.002 sec
 * total energy  :   -15.2125680 Eh     change       -0.3182181E-03 Eh
   gradient norm :     0.0042369 Eh/α   predicted    -0.3166534E-03 (  -0.49%)
   displ. norm   :     0.2113567 α      lambda       -0.2617429E-03
   maximum displ.:     0.0949992 α      in ANC's #2, #6, #11, ...

........................................................................
.............................. CYCLE   40 ..............................
........................................................................

 iter      E             dE          RMSdq      gap      omega  full diag
   1    -15.3103345 -0.153103E+02  0.199E-01   13.76       0.0  T
   2    -15.3103444 -0.989301E-05  0.120E-01   13.77       1.0  T
   3    -15.3103475 -0.312870E-05  0.175E-02   13.77       1.9  T
   4    -15.3103478 -0.300821E-06  0.395E-03   13.77       8.4  T
   5    -15.3103478 -0.263531E-08  0.411E-04   13.77      81.2  T
   6    -15.3103478 -0.762981E-10  0.185E-04   13.77     180.4  T
     SCC iter.                  ...        0 min,  0.002 sec
     gradient                   ...        0 min,  0.001 sec
 * total energy  :   -15.2121925 Eh     change        0.3754720E-03 Eh
   gradient norm :     0.0294404 Eh/α   predicted    -0.1367220E-03 (-136.41%)
   displ. norm   :     0.1360862 α      lambda       -0.9883266E-03
   maximum displ.:     0.0700169 α      in ANC's #11, #6, #5, ...

........................................................................
.............................. CYCLE   41 ..............................
........................................................................

 iter      E             dE          RMSdq      gap      omega  full diag
   1    -15.3153435 -0.153153E+02  0.144E-01   14.09       0.0  T
   2    -15.3153501 -0.656809E-05  0.859E-02   14.11       1.0  T
   3    -15.3153519 -0.183460E-05  0.148E-02   14.10       2.2  T
   4    -15.3153521 -0.203667E-06  0.330E-03   14.11      10.1  T
   5    -15.3153521 -0.184846E-08  0.302E-04   14.11     110.5  T
   6    -15.3153521 -0.370353E-10  0.139E-04   14.11     240.5  T
     SCC iter.                  ...        0 min,  0.002 sec
     gradient                   ...        0 min,  0.000 sec
 * total energy  :   -15.2126295 Eh     change       -0.4369779E-03 Eh
   gradient norm :     0.0018343 Eh/α   predicted    -0.5033159E-03 (  15.18%)
   displ. norm   :     0.1033197 α      lambda       -0.3886366E-04
   maximum displ.:     0.0679353 α      in ANC's #2, #5, #3, ...

........................................................................
.............................. CYCLE   42 ..............................
........................................................................

 iter      E             dE          RMSdq      gap      omega  full diag
   1    -15.3141285 -0.153141E+02  0.727E-02   14.08       0.0  T
   2    -15.3141293 -0.807844E-06  0.452E-02   14.08       1.0  T
   3    -15.3141297 -0.371281E-06  0.402E-03   14.08       8.3  T
   4    -15.3141297 -0.166825E-07  0.103E-03   14.08      32.4  T
   5    -15.3141297 -0.925429E-10  0.768E-05   14.08     433.7  T
   6    -15.3141297 -0.193268E-11  0.290E-05   14.08    1149.5  T
     SCC iter.                  ...        0 min,  0.002 sec
     gradient                   ...        0 min,  0.001 sec
 * total energy  :   -15.2126555 Eh     change       -0.2602631E-04 Eh
   gradient norm :     0.0073668 Eh/α   predicted    -0.1952329E-04 ( -24.99%)
   displ. norm   :     0.2262383 α      lambda       -0.1342044E-03
   maximum displ.:     0.1557326 α      in ANC's #2, #3, #6, ...
 * RMSD in coord.:     0.4847573 α      energy gain  -0.1719982E-02 Eh

generating ANC from exact Hessian ...
Using Lindh-Hessian (1995)
 Shifting diagonal of input Hessian by   9.998031812576046E-003
 Lowest  eigenvalues of input Hessian
    0.000000    0.000000    0.000000    0.000000    0.000000    0.000000
    0.010000    0.010002    0.010004    0.010006    0.010006    0.010006
    0.010421    0.010424    0.010426    0.010496    0.010498    0.010500
 Highest eigenvalues
    1.207339    1.208547    1.214224    1.416343    1.421431    1.435438
 

........................................................................
.............................. CYCLE   43 ..............................
........................................................................

 iter      E             dE          RMSdq      gap      omega  full diag
   1    -15.3130474 -0.153130E+02  0.126E-01   13.98       0.0  T
   2    -15.3130495 -0.202654E-05  0.785E-02   13.98       1.0  T
   3    -15.3130506 -0.115118E-05  0.582E-03   13.97       5.7  T
   4    -15.3130506 -0.210747E-07  0.172E-03   13.98      19.3  T
   5    -15.3130506 -0.796229E-09  0.214E-04   13.97     156.0  T
   6    -15.3130506 -0.191758E-10  0.994E-05   13.97     335.2  T
     SCC iter.                  ...        0 min,  0.002 sec
     gradient                   ...        0 min,  0.002 sec
 * total energy  :   -15.2127294 Eh     change       -0.7389872E-04 Eh
   gradient norm :     0.0096884 Eh/α   predicted     0.0000000E+00 (-100.00%)
   displ. norm   :     0.0553807 α      lambda       -0.1080013E-03
   maximum displ.:     0.0488195 α      in ANC's #6, #4, #5, ...

........................................................................
.............................. CYCLE   44 ..............................
........................................................................

 iter      E             dE          RMSdq      gap      omega  full diag
   1    -15.3148977 -0.153149E+02  0.595E-02   14.07       0.0  T
   2    -15.3148983 -0.608409E-06  0.369E-02   14.07       1.0  T
   3    -15.3148985 -0.251481E-06  0.377E-03   14.07       8.8  T
   4    -15.3148985 -0.152348E-07  0.907E-04   14.07      36.7  T
   5    -15.3148985 -0.539462E-10  0.579E-05   14.07     575.6  T
     SCC iter.                  ...        0 min,  0.002 sec
     gradient                   ...        0 min,  0.004 sec
 * total energy  :   -15.2128051 Eh     change       -0.7565465E-04 Eh
   gradient norm :     0.0039337 Eh/α   predicted    -0.5416771E-04 ( -28.40%)
   displ. norm   :     0.0575067 α      lambda       -0.4617047E-04
   maximum displ.:     0.0468969 α      in ANC's #6, #4, #1, ...

........................................................................
.............................. CYCLE   45 ..............................
........................................................................

 iter      E             dE          RMSdq      gap      omega  full diag
   1    -15.3158478 -0.153158E+02  0.486E-02   14.11       0.0  T
   2    -15.3158482 -0.385154E-06  0.302E-02   14.11       1.1  T
   3    -15.3158484 -0.171017E-06  0.287E-03   14.12      11.6  T
   4    -15.3158484 -0.873175E-08  0.706E-04   14.12      47.2  T
   5    -15.3158484 -0.553104E-10  0.555E-05   14.12     601.1  T
     SCC iter.                  ...        0 min,  0.003 sec
     gradient                   ...        0 min,  0.001 sec
 * total energy  :   -15.2128395 Eh     change       -0.3442757E-04 Eh
   gradient norm :     0.0012627 Eh/α   predicted    -0.2316153E-04 ( -32.72%)
   displ. norm   :     0.1259896 α      lambda       -0.3482495E-04
   maximum displ.:     0.0975003 α      in ANC's #6, #9, #1, ...

........................................................................
.............................. CYCLE   46 ..............................
........................................................................

 iter      E             dE          RMSdq      gap      omega  full diag
   1    -15.3157746 -0.153158E+02  0.965E-02   14.09       0.0  T
   2    -15.3157757 -0.109118E-05  0.604E-02   14.09       1.0  T
   3    -15.3157763 -0.665696E-06  0.389E-03   14.09       8.6  T
   4    -15.3157763 -0.542451E-08  0.101E-03   14.09      33.0  T
   5    -15.3157763 -0.408120E-09  0.146E-04   14.09     229.0  T
   6    -15.3157763 -0.114628E-10  0.639E-05   14.09     521.8  T
     SCC iter.                  ...        0 min,  0.004 sec
     gradient                   ...        0 min,  0.001 sec
 * total energy  :   -15.2128773 Eh     change       -0.3785120E-04 Eh
   gradient norm :     0.0022011 Eh/α   predicted    -0.1753719E-04 ( -53.67%)
   displ. norm   :     0.1396199 α      lambda       -0.4137616E-04
   maximum displ.:     0.0893104 α      in ANC's #6, #3, #1, ...

........................................................................
.............................. CYCLE   47 ..............................
........................................................................

 iter      E             dE          RMSdq      gap      omega  full diag
   1    -15.3156828 -0.153157E+02  0.782E-02   14.11       0.0  T
   2    -15.3156836 -0.712850E-06  0.488E-02   14.11       1.0  T
   3    -15.3156840 -0.433437E-06  0.363E-03   14.12       9.2  T
   4    -15.3156840 -0.582412E-08  0.998E-04   14.12      33.4  T
   5    -15.3156840 -0.472220E-09  0.167E-04   14.12     199.7  T
     SCC iter.                  ...        0 min,  0.004 sec
     gradient                   ...        0 min,  0.001 sec
 * total energy  :   -15.2129099 Eh     change       -0.3254499E-04 Eh
   gradient norm :     0.0016951 Eh/α   predicted    -0.2109112E-04 ( -35.19%)
   displ. norm   :     0.4475044 α      lambda       -0.6600653E-04
   maximum displ.:     0.3084523 α      in ANC's #6, #3, #1, ...

........................................................................
.............................. CYCLE   48 ..............................
........................................................................

 iter      E             dE          RMSdq      gap      omega  full diag
   1    -15.3116061 -0.153116E+02  0.236E-01   13.86       0.0  T
   2    -15.3116133 -0.716975E-05  0.146E-01   13.86       1.0  T
   3    -15.3116173 -0.395589E-05  0.123E-02   13.86       2.7  T
   4    -15.3116174 -0.102919E-06  0.372E-03   13.86       9.0  T
   5    -15.3116174 -0.484074E-08  0.517E-04   13.86      64.5  T
   6    -15.3116174 -0.130035E-09  0.237E-04   13.86     140.4  T
     SCC iter.                  ...        0 min,  0.003 sec
     gradient                   ...        0 min,  0.002 sec
 * total energy  :   -15.2128443 Eh     change        0.6556398E-04 Eh
   gradient norm :     0.0143449 Eh/α   predicted    -0.3593940E-04 (-154.82%)
   displ. norm   :     0.0674214 α      lambda       -0.2918754E-03
   maximum displ.:     0.0469620 α      in ANC's #3, #5, #6, ...

........................................................................
.............................. CYCLE   49 ..............................
........................................................................

 iter      E             dE          RMSdq      gap      omega  full diag
   1    -15.3153503 -0.153154E+02  0.817E-02   14.11       0.0  T
   2    -15.3153526 -0.239210E-05  0.485E-02   14.11       1.0  T
   3    -15.3153532 -0.594541E-06  0.900E-03   14.11       3.7  T
   4    -15.3153533 -0.702189E-07  0.165E-03   14.11      20.2  T
   5    -15.3153533 -0.180556E-09  0.108E-04   14.11     309.2  T
   6    -15.3153533 -0.285283E-11  0.430E-05   14.11     775.7  T
     SCC iter.                  ...        0 min,  0.004 sec
     gradient                   ...        0 min,  0.001 sec
 * total energy  :   -15.2129951 Eh     change       -0.1507448E-03 Eh
   gradient norm :     0.0038584 Eh/α   predicted    -0.1465998E-03 (  -2.75%)
   displ. norm   :     0.1472167 α      lambda       -0.6533413E-04
   maximum displ.:     0.0912371 α      in ANC's #6, #3, #1, ...

........................................................................
.............................. CYCLE   50 ..............................
........................................................................

 iter      E             dE          RMSdq      gap      omega  full diag
   1    -15.3164051 -0.153164E+02  0.562E-02   14.10       0.0  T
   2    -15.3164055 -0.476226E-06  0.347E-02   14.10       1.0  T
   3    -15.3164058 -0.228132E-06  0.334E-03   14.09      10.0  T
   4    -15.3164058 -0.999428E-08  0.967E-04   14.10      34.5  T
   5    -15.3164058 -0.228486E-09  0.103E-04   14.10     323.0  T
     SCC iter.                  ...        0 min,  0.004 sec
     gradient                   ...        0 min,  0.000 sec
 * total energy  :   -15.2130398 Eh     change       -0.4479022E-04 Eh
   gradient norm :     0.0034194 Eh/α   predicted    -0.3337473E-04 ( -25.49%)
   displ. norm   :     0.4903485 α      lambda       -0.1204581E-03
   maximum displ.:     0.3009975 α      in ANC's #3, #6, #1, ...

........................................................................
.............................. CYCLE   51 ..............................
........................................................................

 iter      E             dE          RMSdq      gap      omega  full diag
   1    -15.3159488 -0.153159E+02  0.150E-01   14.09       0.0  T
   2    -15.3159511 -0.229013E-05  0.931E-02   14.09       1.0  T
   3    -15.3159526 -0.150564E-05  0.756E-03   14.09       4.4  T
   4    -15.3159526 -0.221470E-07  0.129E-03   14.09      25.8  T
   5    -15.3159526 -0.109500E-08  0.430E-04   14.09      77.5  T
   6    -15.3159526 -0.111758E-09  0.114E-04   14.09     291.6  T
     SCC iter.                  ...        0 min,  0.001 sec
     gradient                   ...        0 min,  0.001 sec
 * total energy  :   -15.2131588 Eh     change       -0.1189143E-03 Eh
   gradient norm :     0.0053612 Eh/α   predicted    -0.7471012E-04 ( -37.17%)
   displ. norm   :     0.8926071 α      lambda       -0.2511648E-03
   maximum displ.:     0.5560181 α      in ANC's #3, #6, #1, ...

........................................................................
.............................. CYCLE   52 ..............................
........................................................................

 iter      E             dE          RMSdq      gap      omega  full diag
   1    -15.3094485 -0.153094E+02  0.278E-01   13.87       0.0  T
   2    -15.3094588 -0.103221E-04  0.171E-01   13.88       1.0  T
   3    -15.3094641 -0.526874E-05  0.169E-02   13.89       2.0  T
   4    -15.3094643 -0.227908E-06  0.539E-03   13.88       6.2  T
   5    -15.3094644 -0.121427E-07  0.720E-04   13.88      46.3  T
   6    -15.3094644 -0.278416E-09  0.315E-04   13.88     105.9  T
     SCC iter.                  ...        0 min,  0.001 sec
     gradient                   ...        0 min,  0.001 sec
 * total energy  :   -15.2131276 Eh     change        0.3111703E-04 Eh
   gradient norm :     0.0213451 Eh/α   predicted    -0.2256342E-03 (-825.11%)
   displ. norm   :     0.1381835 α      lambda       -0.6937083E-03
   maximum displ.:     0.0860227 α      in ANC's #9, #6, #8, ...

........................................................................
.............................. CYCLE   53 ..............................
........................................................................

 iter      E             dE          RMSdq      gap      omega  full diag
   1    -15.3168743 -0.153169E+02  0.132E-01   14.19       0.0  T
   2    -15.3168773 -0.292075E-05  0.797E-02   14.20       1.0  T
   3    -15.3168782 -0.912459E-06  0.943E-03   14.20       3.5  T
   4    -15.3168783 -0.929690E-07  0.248E-03   14.20      13.5  T
   5    -15.3168783 -0.105370E-08  0.189E-04   14.20     176.5  T
   6    -15.3168783 -0.119869E-10  0.826E-05   14.20     403.7  T
     SCC iter.                  ...        0 min,  0.002 sec
     gradient                   ...        0 min,  0.001 sec
 * total energy  :   -15.2133195 Eh     change       -0.1918252E-03 Eh
   gradient norm :     0.0137988 Eh/α   predicted    -0.3534751E-03 (  84.27%)
   displ. norm   :     0.1200977 α      lambda       -0.2603694E-03
   maximum displ.:     0.0675808 α      in ANC's #3, #6, #1, ...

........................................................................
.............................. CYCLE   54 ..............................
........................................................................

 iter      E             dE          RMSdq      gap      omega  full diag
   1    -15.3170632 -0.153171E+02  0.722E-02   14.09       0.0  T
   2    -15.3170645 -0.129702E-05  0.443E-02   14.09       1.0  T
   3    -15.3170651 -0.559043E-06  0.615E-03   14.09       5.4  T
   4    -15.3170651 -0.347178E-07  0.179E-03   14.09      18.7  T
   5    -15.3170651 -0.947102E-09  0.196E-04   14.09     170.0  T
   6    -15.3170651 -0.213785E-10  0.897E-05   14.09     371.7  T
     SCC iter.                  ...        0 min,  0.003 sec
     gradient                   ...        0 min,  0.001 sec
 * total energy  :   -15.2134409 Eh     change       -0.1214087E-03 Eh
   gradient norm :     0.0062740 Eh/α   predicted    -0.1320602E-03 (   8.77%)
   displ. norm   :     0.4741561 α      lambda       -0.2346267E-03
   maximum displ.:     0.3243706 α      in ANC's #3, #6, #1, ...

........................................................................
.............................. CYCLE   55 ..............................
........................................................................

 iter      E             dE          RMSdq      gap      omega  full diag
   1    -15.3152319 -0.153152E+02  0.114E-01   13.98       0.0  T
   2    -15.3152331 -0.119287E-05  0.702E-02   13.98       1.0  T
   3    -15.3152339 -0.740060E-06  0.557E-03   13.98       6.0  T
   4    -15.3152339 -0.125609E-07  0.137E-03   13.98      24.4  T
   5    -15.3152339 -0.119452E-08  0.257E-04   13.98     129.8  T
   6    -15.3152339 -0.421831E-10  0.104E-04   13.98     320.4  T
     SCC iter.                  ...        0 min,  0.006 sec
     gradient                   ...        0 min,  0.004 sec
 * total energy  :   -15.2134877 Eh     change       -0.4684166E-04 Eh
   gradient norm :     0.0169521 Eh/α   predicted    -0.1436856E-03 ( 206.75%)
   displ. norm   :     0.4324469 α      lambda       -0.3535706E-03
   maximum displ.:     0.3041950 α      in ANC's #3, #6, #1, ...

........................................................................
.............................. CYCLE   56 ..............................
........................................................................

 iter      E             dE          RMSdq      gap      omega  full diag
   1    -15.3135705 -0.153136E+02  0.107E-01   14.02       0.0  T
   2    -15.3135725 -0.206190E-05  0.654E-02   14.02       1.0  T
   3    -15.3135736 -0.107128E-05  0.788E-03   14.03       4.2  T
   4    -15.3135737 -0.483912E-07  0.256E-03   14.02      13.0  T
   5    -15.3135737 -0.301064E-08  0.326E-04   14.02     102.4  T
   6    -15.3135737 -0.633218E-10  0.136E-04   14.02     245.6  T
     SCC iter.                  ...        0 min,  0.004 sec
     gradient                   ...        0 min,  0.003 sec
 * total energy  :   -15.2136926 Eh     change       -0.2048433E-03 Eh
   gradient norm :     0.0130093 Eh/α   predicted    -0.2098447E-03 (   2.44%)
   displ. norm   :     0.3309509 α      lambda       -0.3545334E-03
   maximum displ.:     0.2372314 α      in ANC's #3, #6, #1, ...

........................................................................
.............................. CYCLE   57 ..............................
........................................................................

 iter      E             dE          RMSdq      gap      omega  full diag
   1    -15.3167855 -0.153168E+02  0.825E-02   13.92       0.0  T
   2    -15.3167874 -0.193933E-05  0.494E-02   13.91       1.0  T
   3    -15.3167881 -0.643033E-06  0.799E-03   13.91       4.2  T
   4    -15.3167881 -0.595825E-07  0.214E-03   13.91      15.6  T
   5    -15.3167881 -0.129343E-08  0.204E-04   13.91     163.7  T
   6    -15.3167881 -0.238725E-10  0.960E-05   13.91     347.2  T
     SCC iter.                  ...        0 min,  0.007 sec
     gradient                   ...        0 min,  0.001 sec
 * total energy  :   -15.2137901 Eh     change       -0.9757412E-04 Eh
   gradient norm :     0.0130097 Eh/α   predicted    -0.1966835E-03 ( 101.57%)
   displ. norm   :     0.5085221 α      lambda       -0.3655797E-03
   maximum displ.:     0.3824961 α      in ANC's #3, #6, #1, ...

........................................................................
.............................. CYCLE   58 ..............................
........................................................................

 iter      E             dE          RMSdq      gap      omega  full diag
   1    -15.3168942 -0.153169E+02  0.861E-02   14.00       0.0  T
   2    -15.3168954 -0.118712E-05  0.521E-02   14.01       1.0  T
   3    -15.3168958 -0.395005E-06  0.595E-03   14.01       5.6  T
   4    -15.3168958 -0.390834E-07  0.159E-03   14.01      20.9  T
   5    -15.3168958 -0.718053E-09  0.163E-04   14.01     204.0  T
   6    -15.3168958 -0.128981E-10  0.751E-05   14.01     443.8  T
     SCC iter.                  ...        0 min,  0.002 sec
     gradient                   ...        0 min,  0.000 sec
 * total energy  :   -15.2140970 Eh     change       -0.3068945E-03 Eh
   gradient norm :     0.0061577 Eh/α   predicted    -0.2300729E-03 ( -25.03%)
   displ. norm   :     0.8523902 α      lambda       -0.4565906E-03
   maximum displ.:     0.6249952 α      in ANC's #3, #6, #1, ...

........................................................................
.............................. CYCLE   59 ..............................
........................................................................

 iter      E             dE          RMSdq      gap      omega  full diag
   1    -15.3141686 -0.153142E+02  0.159E-01   13.83       0.0  T
   2    -15.3141728 -0.418672E-05  0.968E-02   13.83       1.0  T
   3    -15.3141745 -0.169822E-05  0.110E-02   13.83       3.0  T
   4    -15.3141746 -0.118305E-06  0.324E-03   13.83      10.3  T
   5    -15.3141746 -0.314023E-08  0.351E-04   13.83      95.1  T
   6    -15.3141746 -0.681268E-10  0.161E-04   13.83     206.5  T
     SCC iter.                  ...        0 min,  0.002 sec
     gradient                   ...        0 min,  0.000 sec
 * total energy  :   -15.2142846 Eh     change       -0.1875213E-03 Eh
   gradient norm :     0.0195669 Eh/α   predicted    -0.3941839E-03 ( 110.21%)
   displ. norm   :     0.5052332 α      lambda       -0.5741556E-03
   maximum displ.:     0.3811867 α      in ANC's #3, #6, #1, ...

........................................................................
.............................. CYCLE   60 ..............................
........................................................................

 iter      E             dE          RMSdq      gap      omega  full diag
   1    -15.3147313 -0.153147E+02  0.104E-01   13.84       0.0  T
   2    -15.3147338 -0.254520E-05  0.619E-02   13.85       1.0  T
   3    -15.3147345 -0.621123E-06  0.912E-03   13.86       3.7  T
   4    -15.3147345 -0.832083E-07  0.220E-03   13.85      15.2  T
   5    -15.3147346 -0.903546E-09  0.163E-04   13.85     204.0  T
   6    -15.3147346 -0.123137E-10  0.707E-05   13.85     471.3  T
     SCC iter.                  ...        0 min,  0.002 sec
     gradient                   ...        0 min,  0.001 sec
 * total energy  :   -15.2145803 Eh     change       -0.2957293E-03 Eh
   gradient norm :     0.0170521 Eh/α   predicted    -0.3603490E-03 (  21.85%)
   displ. norm   :     0.3117361 α      lambda       -0.7430783E-03
   maximum displ.:     0.2564533 α      in ANC's #3, #6, #5, ...

........................................................................
.............................. CYCLE   61 ..............................
........................................................................

 iter      E             dE          RMSdq      gap      omega  full diag
   1    -15.3263493 -0.153263E+02  0.183E-01   14.27       0.0  T
   2    -15.3263615 -0.121904E-04  0.107E-01   14.26       1.0  T
   3    -15.3263644 -0.287016E-05  0.204E-02   14.25       1.6  T
   4    -15.3263647 -0.350161E-06  0.401E-03   14.26       8.3  T
   5    -15.3263647 -0.195191E-08  0.334E-04   14.25      99.9  T
   6    -15.3263647 -0.428209E-10  0.112E-04   14.25     296.9  T
     SCC iter.                  ...        0 min,  0.002 sec
     gradient                   ...        0 min,  0.000 sec
 * total energy  :   -15.2142934 Eh     change        0.2868930E-03 Eh
   gradient norm :     0.0319287 Eh/α   predicted    -0.4076465E-03 (-242.09%)
   displ. norm   :     0.3085316 α      lambda       -0.1129356E-02
   maximum displ.:     0.1991964 α      in ANC's #6, #3, #1, ...

........................................................................
.............................. CYCLE   62 ..............................
........................................................................

 iter      E             dE          RMSdq      gap      omega  full diag
   1    -15.3178573 -0.153179E+02  0.148E-01   13.80       0.0  T
   2    -15.3178646 -0.733292E-05  0.870E-02   13.80       1.0  T
   3    -15.3178664 -0.182181E-05  0.159E-02   13.80       2.1  T
   4    -15.3178666 -0.221634E-06  0.334E-03   13.80      10.0  T
   5    -15.3178666 -0.215538E-08  0.293E-04   13.80     113.9  T
   6    -15.3178666 -0.470255E-10  0.126E-04   13.80     263.6  T
     SCC iter.                  ...        0 min,  0.003 sec
     gradient                   ...        0 min,  0.001 sec
 * total energy  :   -15.2149806 Eh     change       -0.6872028E-03 Eh
   gradient norm :     0.0068917 Eh/α   predicted    -0.6184308E-03 ( -10.01%)
   displ. norm   :     0.7465964 α      lambda       -0.4662053E-03
   maximum displ.:     0.5727380 α      in ANC's #3, #6, #1, ...

........................................................................
.............................. CYCLE   63 ..............................
........................................................................

 iter      E             dE          RMSdq      gap      omega  full diag
   1    -15.3159571 -0.153160E+02  0.133E-01   13.59       0.0  T
   2    -15.3159597 -0.255178E-05  0.830E-02   13.60       1.0  T
   3    -15.3159610 -0.134499E-05  0.763E-03   13.60       4.4  T
   4    -15.3159610 -0.432394E-07  0.227E-03   13.60      14.7  T
   5    -15.3159610 -0.165865E-08  0.277E-04   13.60     120.4  T
   6    -15.3159610 -0.399716E-10  0.130E-04   13.60     257.0  T
     SCC iter.                  ...        0 min,  0.002 sec
     gradient                   ...        0 min,  0.000 sec
 * total energy  :   -15.2153163 Eh     change       -0.3357208E-03 Eh
   gradient norm :     0.0133716 Eh/α   predicted    -0.3630339E-03 (   8.14%)
   displ. norm   :     0.6761746 α      lambda       -0.4102302E-03
   maximum displ.:     0.5317499 α      in ANC's #3, #6, #1, ...

........................................................................
.............................. CYCLE   64 ..............................
........................................................................

 iter      E             dE          RMSdq      gap      omega  full diag
   1    -15.3164404 -0.153164E+02  0.709E-02   13.35       0.0  T
   2    -15.3164411 -0.722380E-06  0.433E-02   13.35       1.0  T
   3    -15.3164414 -0.286426E-06  0.449E-03   13.34       7.4  T
   4    -15.3164415 -0.216707E-07  0.130E-03   13.35      25.7  T
   5    -15.3164415 -0.666006E-09  0.162E-04   13.35     205.3  T
   6    -15.3164415 -0.142997E-10  0.743E-05   13.35     448.8  T
     SCC iter.                  ...        0 min,  0.001 sec
     gradient                   ...        0 min,  0.001 sec
 * total energy  :   -15.2156664 Eh     change       -0.3500522E-03 Eh
   gradient norm :     0.0095421 Eh/α   predicted    -0.2988942E-03 ( -14.61%)
   displ. norm   :     0.6067533 α      lambda       -0.5755774E-03
   maximum displ.:     0.4957877 α      in ANC's #3, #6, #11, ...

........................................................................
.............................. CYCLE   65 ..............................
........................................................................

 iter      E             dE          RMSdq      gap      omega  full diag
   1    -15.3214348 -0.153214E+02  0.994E-02   13.24       0.0  T
   2    -15.3214370 -0.213940E-05  0.591E-02   13.24       1.0  T
   3    -15.3214376 -0.621988E-06  0.824E-03   13.23       4.0  T
   4    -15.3214376 -0.700260E-07  0.216E-03   13.23      15.4  T
   5    -15.3214376 -0.146668E-08  0.212E-04   13.23     157.4  T
   6    -15.3214376 -0.255689E-10  0.950E-05   13.23     350.9  T
     SCC iter.                  ...        0 min,  0.003 sec
     gradient                   ...        0 min,  0.001 sec
 * total energy  :   -15.2160139 Eh     change       -0.3475648E-03 Eh
   gradient norm :     0.0111752 Eh/α   predicted    -0.3937240E-03 (  13.28%)
   displ. norm   :     0.6127993 α      lambda       -0.4785171E-03
   maximum displ.:     0.5002772 α      in ANC's #3, #6, #9, ...

........................................................................
.............................. CYCLE   66 ..............................
........................................................................

 iter      E             dE          RMSdq      gap      omega  full diag
   1    -15.3202507 -0.153203E+02  0.911E-02   12.89       0.0  T
   2    -15.3202518 -0.113443E-05  0.551E-02   12.89       1.0  T
   3    -15.3202523 -0.472448E-06  0.597E-03   12.88       5.6  T
   4    -15.3202523 -0.360890E-07  0.188E-03   12.88      17.7  T
   5    -15.3202523 -0.171283E-08  0.215E-04   12.88     154.7  T
   6    -15.3202523 -0.272031E-10  0.924E-05   12.88     360.6  T
     SCC iter.                  ...        0 min,  0.001 sec
     gradient                   ...        0 min,  0.001 sec
 * total energy  :   -15.2163376 Eh     change       -0.3236419E-03 Eh
   gradient norm :     0.0122342 Eh/α   predicted    -0.3291031E-03 (   1.69%)
   displ. norm   :     0.3779009 α      lambda       -0.4885134E-03
   maximum displ.:     0.2335317 α      in ANC's #1, #3, #6, ...
 * RMSD in coord.:     2.8435890 α      energy gain  -0.3682073E-02 Eh

generating ANC from exact Hessian ...
Using Lindh-Hessian (1995)
 Shifting diagonal of input Hessian by   1.031738553860940E-002
 Lowest  eigenvalues of input Hessian
    0.010000    0.010172    0.010179    0.000000    0.000000    0.000000
    0.000000    0.000000    0.000000    0.010422    0.010653    0.010683
    0.010731    0.010767    0.010784    0.011293    0.011684    0.012120
 Highest eigenvalues
    1.201559    1.218799    1.225440    1.426855    1.437325    1.446123
 

........................................................................
.............................. CYCLE   67 ..............................
........................................................................

 iter      E             dE          RMSdq      gap      omega  full diag
   1    -15.3189666 -0.153190E+02  0.879E-02   12.62       0.0  T
   2    -15.3189679 -0.122329E-05  0.530E-02   12.61       1.0  T
   3    -15.3189682 -0.337916E-06  0.595E-03   12.60       5.6  T
   4    -15.3189683 -0.432081E-07  0.141E-03   12.60      23.7  T
   5    -15.3189683 -0.489367E-09  0.142E-04   12.60     235.2  T
   6    -15.3189683 -0.104023E-10  0.624E-05   12.60     533.8  T
     SCC iter.                  ...        0 min,  0.001 sec
     gradient                   ...        0 min,  0.001 sec
 * total energy  :   -15.2167483 Eh     change       -0.4107754E-03 Eh
   gradient norm :     0.0090240 Eh/α   predicted     0.0000000E+00 (-100.00%)
   displ. norm   :     0.2491788 α      lambda       -0.8327941E-03
   maximum displ.:     0.1428000 α      in ANC's #4, #6, #11, ...

........................................................................
.............................. CYCLE   68 ..............................
........................................................................

 iter      E             dE          RMSdq      gap      omega  full diag
   1    -15.3184792 -0.153185E+02  0.197E-01   12.51       0.0  T
   2    -15.3184831 -0.398213E-05  0.122E-01   12.51       1.0  T
   3    -15.3184856 -0.248014E-05  0.899E-03   12.51       3.7  T
   4    -15.3184857 -0.321938E-07  0.231E-03   12.50      14.4  T
   5    -15.3184857 -0.297994E-08  0.389E-04   12.50      85.7  T
   6    -15.3184857 -0.104313E-09  0.171E-04   12.50     195.3  T
     SCC iter.                  ...        0 min,  0.002 sec
     gradient                   ...        0 min,  0.000 sec
 * total energy  :   -15.2174506 Eh     change       -0.7022467E-03 Eh
   gradient norm :     0.0073339 Eh/α   predicted    -0.4422512E-03 ( -37.02%)
   displ. norm   :     0.5716953 α      lambda       -0.1527576E-02
   maximum displ.:     0.3001673 α      in ANC's #6, #11, #3, ...

........................................................................
.............................. CYCLE   69 ..............................
........................................................................

 iter      E             dE          RMSdq      gap      omega  full diag
   1    -15.3097922 -0.153098E+02  0.368E-01   12.16       0.0  T
   2    -15.3098105 -0.183252E-04  0.224E-01   12.18       1.0  T
   3    -15.3098193 -0.883373E-05  0.233E-02   12.19       1.4  T
   4    -15.3098199 -0.520497E-06  0.800E-03   12.18       4.2  T
   5    -15.3098199 -0.305448E-07  0.973E-04   12.18      34.2  T
   6    -15.3098199 -0.626111E-09  0.393E-04   12.18      84.7  T
     SCC iter.                  ...        0 min,  0.001 sec
     gradient                   ...        0 min,  0.001 sec
 * total energy  :   -15.2180066 Eh     change       -0.5560500E-03 Eh
   gradient norm :     0.0383644 Eh/α   predicted    -0.1013421E-02 (  82.25%)
   displ. norm   :     0.1829087 α      lambda       -0.1625584E-02
   maximum displ.:     0.0919845 α      in ANC's #8, #3, #2, ...

........................................................................
.............................. CYCLE   70 ..............................
........................................................................

 iter      E             dE          RMSdq      gap      omega  full diag
   1    -15.3185174 -0.153185E+02  0.156E-01   12.57       0.0  T
   2    -15.3185231 -0.566688E-05  0.928E-02   12.56       1.0  T
   3    -15.3185248 -0.175843E-05  0.134E-02   12.56       2.5  T
   4    -15.3185250 -0.178065E-06  0.344E-03   12.56       9.7  T
   5    -15.3185250 -0.256754E-08  0.301E-04   12.56     110.7  T
   6    -15.3185250 -0.439684E-10  0.138E-04   12.56     241.8  T
     SCC iter.                  ...        0 min,  0.003 sec
     gradient                   ...        0 min,  0.001 sec
 * total energy  :   -15.2188813 Eh     change       -0.8746513E-03 Eh
   gradient norm :     0.0159932 Eh/α   predicted    -0.8399805E-03 (  -3.96%)
   displ. norm   :     0.3315505 α      lambda       -0.8800704E-03
   maximum displ.:     0.2007365 α      in ANC's #3, #2, #11, ...

........................................................................
.............................. CYCLE   71 ..............................
........................................................................

 iter      E             dE          RMSdq      gap      omega  full diag
   1    -15.3207665 -0.153208E+02  0.120E-01   12.60       0.0  T
   2    -15.3207678 -0.134755E-05  0.729E-02   12.60       1.0  T
   3    -15.3207684 -0.616362E-06  0.639E-03   12.59       5.2  T
   4    -15.3207685 -0.434877E-07  0.213E-03   12.60      15.7  T
   5    -15.3207685 -0.244385E-08  0.235E-04   12.60     141.8  T
   6    -15.3207685 -0.317737E-10  0.881E-05   12.60     378.3  T
     SCC iter.                  ...        0 min,  0.004 sec
     gradient                   ...        0 min,  0.001 sec
 * total energy  :   -15.2196792 Eh     change       -0.7979297E-03 Eh
   gradient norm :     0.0127245 Eh/α   predicted    -0.4884106E-03 ( -38.79%)
   displ. norm   :     0.7243217 α      lambda       -0.1870247E-02
   maximum displ.:     0.3998255 α      in ANC's #3, #2, #11, ...

........................................................................
.............................. CYCLE   72 ..............................
........................................................................

 iter      E             dE          RMSdq      gap      omega  full diag
   1    -15.3189314 -0.153189E+02  0.262E-01   12.34       0.0  T
   2    -15.3189358 -0.443494E-05  0.160E-01   12.33       1.0  T
   3    -15.3189384 -0.253461E-05  0.113E-02   12.32       3.0  T
   4    -15.3189385 -0.103990E-06  0.397E-03   12.33       8.4  T
   5    -15.3189385 -0.927672E-08  0.511E-04   12.33      65.2  T
   6    -15.3189385 -0.155945E-09  0.189E-04   12.33     176.7  T
     SCC iter.                  ...        0 min,  0.002 sec
     gradient                   ...        0 min,  0.000 sec
 * total energy  :   -15.2210806 Eh     change       -0.1401342E-02 Eh
   gradient norm :     0.0174910 Eh/α   predicted    -0.1425757E-02 (   1.74%)
   displ. norm   :     0.5548424 α      lambda       -0.1342466E-02
   maximum displ.:     0.2824779 α      in ANC's #3, #11, #2, ...

........................................................................
.............................. CYCLE   73 ..............................
........................................................................

 iter      E             dE          RMSdq      gap      omega  full diag
   1    -15.3201721 -0.153202E+02  0.183E-01   12.09       0.0  T
   2    -15.3201831 -0.110486E-04  0.108E-01   12.07       1.0  T
   3    -15.3201856 -0.248428E-05  0.188E-02   12.05       1.8  T
   4    -15.3201860 -0.353446E-06  0.407E-03   12.06       8.2  T
   5    -15.3201860 -0.509931E-08  0.563E-04   12.06      59.2  T
   6    -15.3201860 -0.187544E-09  0.209E-04   12.06     159.8  T
     SCC iter.                  ...        0 min,  0.002 sec
     gradient                   ...        0 min,  0.001 sec
 * total energy  :   -15.2216998 Eh     change       -0.6192802E-03 Eh
   gradient norm :     0.0234211 Eh/α   predicted    -0.8778670E-03 (  41.76%)
   displ. norm   :     0.4379289 α      lambda       -0.1357468E-02
   maximum displ.:     0.2492736 α      in ANC's #11, #3, #2, ...

........................................................................
.............................. CYCLE   74 ..............................
........................................................................

 iter      E             dE          RMSdq      gap      omega  full diag
   1    -15.3267678 -0.153268E+02  0.174E-01   12.25       0.0  T
   2    -15.3267766 -0.887470E-05  0.104E-01   12.24       1.0  T
   3    -15.3267793 -0.262824E-05  0.171E-02   12.23       2.0  T
   4    -15.3267795 -0.283831E-06  0.403E-03   12.23       8.3  T
   5    -15.3267795 -0.314032E-08  0.308E-04   12.23     108.1  T
   6    -15.3267795 -0.421867E-10  0.140E-04   12.23     238.5  T
     SCC iter.                  ...        0 min,  0.002 sec
     gradient                   ...        0 min,  0.001 sec
 * total energy  :   -15.2221056 Eh     change       -0.4057497E-03 Eh
   gradient norm :     0.0193832 Eh/α   predicted    -0.8089006E-03 (  99.36%)
   displ. norm   :     0.5026046 α      lambda       -0.2137826E-02
   maximum displ.:     0.3246257 α      in ANC's #11, #3, #10, ...

........................................................................
.............................. CYCLE   75 ..............................
........................................................................

 iter      E             dE          RMSdq      gap      omega  full diag
   1    -15.3068637 -0.153069E+02  0.395E-01   11.54       0.0  T
   2    -15.3069203 -0.565890E-04  0.230E-01   11.54       1.0  T
   3    -15.3069343 -0.139794E-04  0.437E-02   11.54       1.0  T
   4    -15.3069360 -0.174667E-05  0.120E-02   11.54       2.8  T
   5    -15.3069361 -0.385038E-07  0.124E-03   11.53      26.9  T
   6    -15.3069361 -0.127463E-08  0.515E-04   11.53      64.7  T
   7    -15.3069361 -0.135110E-09  0.938E-05   11.53     355.2  T
     SCC iter.                  ...        0 min,  0.001 sec
     gradient                   ...        0 min,  0.001 sec
 * total energy  :   -15.2182324 Eh     change        0.3873154E-02 Eh
   gradient norm :     0.0746211 Eh/α   predicted    -0.1338935E-02 (-134.57%)
   displ. norm   :     0.2679010 α      lambda       -0.8418487E-02
   maximum displ.:     0.1555921 α      in ANC's #6, #11, #5, ...

........................................................................
.............................. CYCLE   76 ..............................
........................................................................

 iter      E             dE          RMSdq      gap      omega  full diag
   1    -15.3244213 -0.153244E+02  0.295E-01   12.18       0.0  T
   2    -15.3244521 -0.307733E-04  0.171E-01   12.17       1.0  T
   3    -15.3244599 -0.775864E-05  0.313E-02   12.17       1.1  T
   4    -15.3244608 -0.932588E-06  0.802E-03   12.18       4.2  T
   5    -15.3244608 -0.147931E-07  0.834E-04   12.18      40.0  T
   6    -15.3244608 -0.489994E-09  0.296E-04   12.18     112.8  T
     SCC iter.                  ...        0 min,  0.002 sec
     gradient                   ...        0 min,  0.001 sec
 * total energy  :   -15.2226909 Eh     change       -0.4458435E-02 Eh
   gradient norm :     0.0101620 Eh/α   predicted    -0.4511347E-02 (   1.19%)
   displ. norm   :     0.1819047 α      lambda       -0.4400736E-03
   maximum displ.:     0.1190309 α      in ANC's #10, #8, #11, ...

........................................................................
.............................. CYCLE   77 ..............................
........................................................................

 iter      E             dE          RMSdq      gap      omega  full diag
   1    -15.3235987 -0.153236E+02  0.807E-02   12.07       0.0  T
   2    -15.3236007 -0.207099E-05  0.481E-02   12.09       1.0  T
   3    -15.3236013 -0.592001E-06  0.813E-03   12.09       4.1  T
   4    -15.3236014 -0.682036E-07  0.202E-03   12.09      16.5  T
   5    -15.3236014 -0.141679E-08  0.195E-04   12.09     171.2  T
   6    -15.3236014 -0.177174E-10  0.933E-05   12.09     357.4  T
     SCC iter.                  ...        0 min,  0.002 sec
     gradient                   ...        0 min,  0.000 sec
 * total energy  :   -15.2229977 Eh     change       -0.3068386E-03 Eh
   gradient norm :     0.0071168 Eh/α   predicted    -0.2273168E-03 ( -25.92%)
   displ. norm   :     0.4563906 α      lambda       -0.7888984E-03
   maximum displ.:     0.2551255 α      in ANC's #12, #10, #11, ...

........................................................................
.............................. CYCLE   78 ..............................
........................................................................

 iter      E             dE          RMSdq      gap      omega  full diag
   1    -15.3265168 -0.153265E+02  0.106E-01   12.17       0.0  T
   2    -15.3265221 -0.532248E-05  0.621E-02   12.19       1.0  T
   3    -15.3265231 -0.104058E-05  0.130E-02   12.20       2.6  T
   4    -15.3265233 -0.140614E-06  0.241E-03   12.20      13.8  T
   5    -15.3265233 -0.248750E-08  0.347E-04   12.20      96.1  T
   6    -15.3265233 -0.474145E-10  0.159E-04   12.20     209.3  T
     SCC iter.                  ...        0 min,  0.001 sec
     gradient                   ...        0 min,  0.000 sec
 * total energy  :   -15.2232741 Eh     change       -0.2764159E-03 Eh
   gradient norm :     0.0125957 Eh/α   predicted    -0.4766095E-03 (  72.42%)
   displ. norm   :     0.2778432 α      lambda       -0.3462730E-03
   maximum displ.:     0.1662222 α      in ANC's #11, #3, #2, ...

........................................................................
.............................. CYCLE   79 ..............................
........................................................................

 iter      E             dE          RMSdq      gap      omega  full diag
   1    -15.3251378 -0.153251E+02  0.747E-02   12.11       0.0  T
   2    -15.3251387 -0.849338E-06  0.449E-02   12.10       1.0  T
   3    -15.3251389 -0.221250E-06  0.501E-03   12.09       6.7  T
   4    -15.3251390 -0.318268E-07  0.132E-03   12.10      25.3  T
   5    -15.3251390 -0.739663E-09  0.168E-04   12.10     198.8  T
   6    -15.3251390 -0.165770E-10  0.633E-05   12.10     526.5  T
     SCC iter.                  ...        0 min,  0.001 sec
     gradient                   ...        0 min,  0.000 sec
 * total energy  :   -15.2234455 Eh     change       -0.1713571E-03 Eh
   gradient norm :     0.0068517 Eh/α   predicted    -0.1865025E-03 (   8.84%)
   displ. norm   :     0.1038041 α      lambda       -0.1027596E-03
   maximum displ.:     0.0674735 α      in ANC's #10, #2, #6, ...

........................................................................
.............................. CYCLE   80 ..............................
........................................................................

 iter      E             dE          RMSdq      gap      omega  full diag
   1    -15.3252770 -0.153253E+02  0.485E-02   12.14       0.0  T
   2    -15.3252781 -0.108227E-05  0.286E-02   12.14       1.2  T
   3    -15.3252784 -0.245839E-06  0.594E-03   12.13       5.6  T
   4    -15.3252784 -0.313659E-07  0.128E-03   12.13      26.1  T
   5    -15.3252784 -0.491170E-09  0.150E-04   12.13     222.9  T
   6    -15.3252784 -0.121414E-10  0.627E-05   12.13     531.8  T
     SCC iter.                  ...        0 min,  0.002 sec
     gradient                   ...        0 min,  0.001 sec
 * total energy  :   -15.2234749 Eh     change       -0.2945267E-04 Eh
   gradient norm :     0.0029718 Eh/α   predicted    -0.5193215E-04 (  76.32%)
   displ. norm   :     0.0646714 α      lambda       -0.3746624E-04
   maximum displ.:     0.0428253 α      in ANC's #10, #6, #11, ...

........................................................................
.............................. CYCLE   81 ..............................
........................................................................

 iter      E             dE          RMSdq      gap      omega  full diag
   1    -15.3251967 -0.153252E+02  0.259E-02   12.11       0.0  T
   2    -15.3251968 -0.119635E-06  0.156E-02   12.11       2.1  T
   3    -15.3251968 -0.326762E-07  0.189E-03   12.11      17.6  T
   4    -15.3251968 -0.419713E-08  0.513E-04   12.11      65.0  T
   5    -15.3251968 -0.981863E-10  0.605E-05   12.11     551.0  T
     SCC iter.                  ...        0 min,  0.001 sec
     gradient                   ...        0 min,  0.000 sec
 * total energy  :   -15.2234949 Eh     change       -0.1997146E-04 Eh
   gradient norm :     0.0017368 Eh/α   predicted    -0.1881205E-04 (  -5.81%)
   displ. norm   :     0.0824635 α      lambda       -0.1801449E-04
   maximum displ.:     0.0481629 α      in ANC's #9, #6, #12, ...

........................................................................
.............................. CYCLE   82 ..............................
........................................................................

 iter      E             dE          RMSdq      gap      omega  full diag
   1    -15.3256973 -0.153257E+02  0.420E-02   12.14       0.0  T
   2    -15.3256975 -0.193497E-06  0.256E-02   12.14       1.3  T
   3    -15.3256975 -0.766697E-07  0.238E-03   12.14      14.0  T
   4    -15.3256975 -0.589489E-08  0.721E-04   12.14      46.2  T
   5    -15.3256975 -0.213623E-09  0.877E-05   12.14     380.0  T
     SCC iter.                  ...        0 min,  0.002 sec
     gradient                   ...        0 min,  0.001 sec
 * total energy  :   -15.2235018 Eh     change       -0.6882626E-05 Eh
   gradient norm :     0.0044465 Eh/α   predicted    -0.9035684E-05 (  31.28%)
   displ. norm   :     0.0353255 α      lambda       -0.1751593E-04
   maximum displ.:     0.0243323 α      in ANC's #9, #7, #3, ...

........................................................................
.............................. CYCLE   83 ..............................
........................................................................

 iter      E             dE          RMSdq      gap      omega  full diag
   1    -15.3254497 -0.153254E+02  0.186E-02   12.12       0.0  T
   2    -15.3254498 -0.176381E-07  0.113E-02   12.13       3.0  T
   3    -15.3254498 -0.517563E-08  0.682E-04   12.13      48.8  T
   4    -15.3254498 -0.633753E-09  0.185E-04   12.13     179.9  T
     SCC iter.                  ...        0 min,  0.001 sec
     gradient                   ...        0 min,  0.001 sec
 * total energy  :   -15.2235163 Eh     change       -0.1448393E-04 Eh
   gradient norm :     0.0031930 Eh/α   predicted    -0.8768414E-05 ( -39.46%)
   displ. norm   :     0.1163362 α      lambda       -0.4171015E-04
   maximum displ.:     0.0879233 α      in ANC's #9, #3, #6, ...

........................................................................
.............................. CYCLE   84 ..............................
........................................................................

 iter      E             dE          RMSdq      gap      omega  full diag
   1    -15.3249285 -0.153249E+02  0.674E-02   12.09       0.0  T
   2    -15.3249288 -0.208130E-06  0.411E-02   12.09       1.0  T
   3    -15.3249289 -0.103470E-06  0.230E-03   12.09      14.5  T
   4    -15.3249289 -0.436858E-08  0.772E-04   12.09      43.2  T
   5    -15.3249289 -0.226546E-09  0.106E-04   12.09     313.5  T
     SCC iter.                  ...        0 min,  0.002 sec
     gradient                   ...        0 min,  0.001 sec
 * total energy  :   -15.2235446 Eh     change       -0.2829310E-04 Eh
   gradient norm :     0.0021028 Eh/α   predicted    -0.2113553E-04 ( -25.30%)
   displ. norm   :     0.1368039 α      lambda       -0.3586022E-04
   maximum displ.:     0.0917175 α      in ANC's #9, #3, #6, ...

........................................................................
.............................. CYCLE   85 ..............................
........................................................................

 iter      E             dE          RMSdq      gap      omega  full diag
   1    -15.3243439 -0.153243E+02  0.842E-02   12.06       0.0  T
   2    -15.3243443 -0.449617E-06  0.517E-02   12.06       1.0  T
   3    -15.3243446 -0.261975E-06  0.332E-03   12.05      10.0  T
   4    -15.3243446 -0.600738E-08  0.100E-03   12.05      33.3  T
   5    -15.3243446 -0.475234E-09  0.152E-04   12.05     219.6  T
   6    -15.3243446 -0.148255E-10  0.620E-05   12.05     537.8  T
     SCC iter.                  ...        0 min,  0.002 sec
     gradient                   ...        0 min,  0.001 sec
 * total energy  :   -15.2235722 Eh     change       -0.2763897E-04 Eh
   gradient norm :     0.0039821 Eh/α   predicted    -0.1826711E-04 ( -33.91%)
   displ. norm   :     0.2599410 α      lambda       -0.7947310E-04
   maximum displ.:     0.1557473 α      in ANC's #9, #3, #6, ...

........................................................................
.............................. CYCLE   86 ..............................
........................................................................

 iter      E             dE          RMSdq      gap      omega  full diag
   1    -15.3232520 -0.153233E+02  0.154E-01   11.99       0.0  T
   2    -15.3232538 -0.176640E-05  0.948E-02   11.99       1.0  T
   3    -15.3232548 -0.103248E-05  0.637E-03   11.99       5.2  T
   4    -15.3232549 -0.213813E-07  0.184E-03   11.99      18.1  T
   5    -15.3232549 -0.156043E-08  0.294E-04   11.99     113.5  T
   6    -15.3232549 -0.517790E-10  0.122E-04   11.99     273.7  T
     SCC iter.                  ...        0 min,  0.001 sec
     gradient                   ...        0 min,  0.001 sec
 * total energy  :   -15.2236117 Eh     change       -0.3950803E-04 Eh
   gradient norm :     0.0089467 Eh/α   predicted    -0.4242381E-04 (   7.38%)
   displ. norm   :     0.0843957 α      lambda       -0.1085566E-03
   maximum displ.:     0.0463978 α      in ANC's #3, #8, #6, ...

........................................................................
.............................. CYCLE   87 ..............................
........................................................................

 iter      E             dE          RMSdq      gap      omega  full diag
   1    -15.3258472 -0.153258E+02  0.503E-02   12.04       0.0  T
   2    -15.3258476 -0.395963E-06  0.302E-02   12.03       1.1  T
   3    -15.3258477 -0.126440E-06  0.338E-03   12.03       9.9  T
   4    -15.3258477 -0.123152E-07  0.984E-04   12.03      33.9  T
   5    -15.3258477 -0.217195E-09  0.881E-05   12.03     378.3  T
     SCC iter.                  ...        0 min,  0.001 sec
     gradient                   ...        0 min,  0.001 sec
 * total energy  :   -15.2236339 Eh     change       -0.2214319E-04 Eh
   gradient norm :     0.0069807 Eh/α   predicted    -0.5466632E-04 ( 146.88%)
   displ. norm   :     0.1426160 α      lambda       -0.1114410E-03
   maximum displ.:     0.0855495 α      in ANC's #3, #9, #6, ...

........................................................................
.............................. CYCLE   88 ..............................
........................................................................

 iter      E             dE          RMSdq      gap      omega  full diag
   1    -15.3247628 -0.153248E+02  0.816E-02   12.01       0.0  T
   2    -15.3247633 -0.577844E-06  0.505E-02   12.01       1.0  T
   3    -15.3247637 -0.346652E-06  0.369E-03   12.01       9.0  T
   4    -15.3247637 -0.616257E-08  0.101E-03   12.01      33.2  T
   5    -15.3247637 -0.512982E-09  0.176E-04   12.01     189.7  T
   6    -15.3247637 -0.168505E-10  0.713E-05   12.01     467.6  T
     SCC iter.                  ...        0 min,  0.001 sec
     gradient                   ...        0 min,  0.001 sec
 * total energy  :   -15.2237155 Eh     change       -0.8165255E-04 Eh
   gradient norm :     0.0059217 Eh/α   predicted    -0.5685452E-04 ( -30.37%)
   displ. norm   :     0.2230047 α      lambda       -0.1296224E-03
   maximum displ.:     0.1407273 α      in ANC's #3, #9, #6, ...

........................................................................
.............................. CYCLE   89 ..............................
........................................................................

 iter      E             dE          RMSdq      gap      omega  full diag
   1    -15.3230621 -0.153231E+02  0.123E-01   11.94       0.0  T
   2    -15.3230633 -0.116837E-05  0.763E-02   11.94       1.0  T
   3    -15.3230640 -0.742272E-06  0.511E-03   11.93       6.5  T
   4    -15.3230640 -0.914056E-08  0.105E-03   11.93      31.7  T
   5    -15.3230640 -0.803695E-09  0.271E-04   11.93     123.0  T
   6    -15.3230640 -0.487521E-10  0.997E-05   11.93     334.4  T
     SCC iter.                  ...        0 min,  0.001 sec
     gradient                   ...        0 min,  0.001 sec
 * total energy  :   -15.2237745 Eh     change       -0.5895370E-04 Eh
   gradient norm :     0.0121836 Eh/α   predicted    -0.6803554E-04 (  15.41%)
   displ. norm   :     0.0915078 α      lambda       -0.2111047E-03
   maximum displ.:     0.0389761 α      in ANC's #3, #6, #12, ...

........................................................................
.............................. CYCLE   90 ..............................
........................................................................

 iter      E             dE          RMSdq      gap      omega  full diag
   1    -15.3261444 -0.153261E+02  0.693E-02   12.05       0.0  T
   2    -15.3261467 -0.225119E-05  0.394E-02   12.04       1.0  T
   3    -15.3261472 -0.486470E-06  0.858E-03   12.03       3.9  T
   4    -15.3261472 -0.590732E-07  0.173E-03   12.04      19.3  T
   5    -15.3261472 -0.734534E-09  0.195E-04   12.04     171.3  T
   6    -15.3261472 -0.274074E-10  0.695E-05   12.04     479.6  T
     SCC iter.                  ...        0 min,  0.001 sec
     gradient                   ...        0 min,  0.001 sec
 * total energy  :   -15.2237950 Eh     change       -0.2055144E-04 Eh
   gradient norm :     0.0112086 Eh/α   predicted    -0.1064377E-03 ( 417.91%)
   displ. norm   :     0.1789286 α      lambda       -0.2451794E-03
   maximum displ.:     0.1185284 α      in ANC's #3, #2, #6, ...

........................................................................
.............................. CYCLE   91 ..............................
........................................................................

 iter      E             dE          RMSdq      gap      omega  full diag
   1    -15.3250864 -0.153251E+02  0.114E-01   12.00       0.0  T
   2    -15.3250883 -0.190170E-05  0.703E-02   12.01       1.0  T
   3    -15.3250891 -0.769047E-06  0.711E-03   12.01       4.7  T
   4    -15.3250892 -0.545987E-07  0.189E-03   12.00      17.6  T
   5    -15.3250892 -0.928246E-09  0.214E-04   12.00     156.0  T
   6    -15.3250892 -0.292459E-10  0.926E-05   12.00     359.8  T
     SCC iter.                  ...        0 min,  0.001 sec
     gradient                   ...        0 min,  0.000 sec
 * total energy  :   -15.2239913 Eh     change       -0.1962898E-03 Eh
   gradient norm :     0.0067782 Eh/α   predicted    -0.1265129E-03 ( -35.55%)
   displ. norm   :     0.5517776 α      lambda       -0.4380606E-03
   maximum displ.:     0.4179068 α      in ANC's #3, #9, #7, ...

........................................................................
.............................. CYCLE   92 ..............................
........................................................................

 iter      E             dE          RMSdq      gap      omega  full diag
   1    -15.3171817 -0.153172E+02  0.310E-01   11.64       0.0  T
   2    -15.3171941 -0.123738E-04  0.190E-01   11.65       1.0  T
   3    -15.3171988 -0.471038E-05  0.183E-02   11.65       1.8  T
   4    -15.3171992 -0.356277E-06  0.481E-03   11.65       6.9  T
   5    -15.3171992 -0.483615E-08  0.581E-04   11.65      57.4  T
   6    -15.3171992 -0.215163E-09  0.226E-04   11.65     147.3  T
     SCC iter.                  ...        0 min,  0.001 sec
     gradient                   ...        0 min,  0.001 sec
 * total energy  :   -15.2238579 Eh     change        0.1334268E-03 Eh
   gradient norm :     0.0272315 Eh/α   predicted    -0.2857120E-03 (-314.13%)
   displ. norm   :     0.2464747 α      lambda       -0.1072688E-02
   maximum displ.:     0.1627527 α      in ANC's #9, #3, #6, ...
 * RMSD in coord.:     1.2993994 α      energy gain  -0.7520311E-02 Eh

generating ANC from exact Hessian ...
Using Lindh-Hessian (1995)
 Shifting diagonal of input Hessian by   1.022490564951113E-002
 Lowest  eigenvalues of input Hessian
    0.010000    0.000000    0.000000    0.000000    0.000000    0.000000
    0.000000    0.010458    0.010498    0.010612    0.010726    0.010820
    0.012368    0.013112    0.013992    0.014718    0.018453    0.021086
 Highest eigenvalues
    1.209076    1.216823    1.238204    1.415471    1.436447    1.449780
 

........................................................................
.............................. CYCLE   93 ..............................
........................................................................

 iter      E             dE          RMSdq      gap      omega  full diag
   1    -15.3261165 -0.153261E+02  0.188E-01   11.95       0.0  T
   2    -15.3261241 -0.754708E-05  0.113E-01   11.94       1.0  T
   3    -15.3261262 -0.211386E-05  0.156E-02   11.94       2.1  T
   4    -15.3261264 -0.258130E-06  0.384E-03   11.95       8.7  T
   5    -15.3261265 -0.403787E-08  0.444E-04   11.95      75.2  T
   6    -15.3261265 -0.128470E-09  0.164E-04   11.95     203.7  T
     SCC iter.                  ...        0 min,  0.002 sec
     gradient                   ...        0 min,  0.000 sec
 * total energy  :   -15.2241656 Eh     change       -0.3076804E-03 Eh
   gradient norm :     0.0146604 Eh/α   predicted     0.0000000E+00 (-100.00%)
   displ. norm   :     0.1235634 α      lambda       -0.3619393E-03
   maximum displ.:     0.0672648 α      in ANC's #2, #6, #9, ...

........................................................................
.............................. CYCLE   94 ..............................
........................................................................

 iter      E             dE          RMSdq      gap      omega  full diag
   1    -15.3252183 -0.153252E+02  0.136E-01   11.95       0.0  T
   2    -15.3252199 -0.162538E-05  0.850E-02   11.95       1.0  T
   3    -15.3252209 -0.100105E-05  0.478E-03   11.95       7.0  T
   4    -15.3252209 -0.460325E-08  0.109E-03   11.95      30.6  T
   5    -15.3252209 -0.582904E-09  0.158E-04   11.95     211.6  T
   6    -15.3252209 -0.205969E-10  0.586E-05   11.95     568.6  T
     SCC iter.                  ...        0 min,  0.001 sec
     gradient                   ...        0 min,  0.000 sec
 * total energy  :   -15.2243867 Eh     change       -0.2211117E-03 Eh
   gradient norm :     0.0070050 Eh/α   predicted    -0.1837316E-03 ( -16.91%)
   displ. norm   :     0.1075267 α      lambda       -0.1626093E-03
   maximum displ.:     0.0793173 α      in ANC's #6, #8, #10, ...

........................................................................
.............................. CYCLE   95 ..............................
........................................................................

 iter      E             dE          RMSdq      gap      omega  full diag
   1    -15.3250262 -0.153250E+02  0.831E-02   11.96       0.0  T
   2    -15.3250269 -0.681095E-06  0.515E-02   11.96       1.0  T
   3    -15.3250272 -0.346850E-06  0.372E-03   11.95       9.0  T
   4    -15.3250272 -0.112842E-07  0.114E-03   11.95      29.2  T
   5    -15.3250272 -0.285167E-09  0.113E-04   11.95     294.6  T
   6    -15.3250272 -0.607159E-11  0.500E-05   11.95     667.1  T
     SCC iter.                  ...        0 min,  0.001 sec
     gradient                   ...        0 min,  0.001 sec
 * total energy  :   -15.2245128 Eh     change       -0.1260764E-03 Eh
   gradient norm :     0.0055882 Eh/α   predicted    -0.8224383E-04 ( -34.77%)
   displ. norm   :     0.2405254 α      lambda       -0.2390600E-03
   maximum displ.:     0.1742467 α      in ANC's #6, #8, #7, ...

........................................................................
.............................. CYCLE   96 ..............................
........................................................................

 iter      E             dE          RMSdq      gap      omega  full diag
   1    -15.3224372 -0.153224E+02  0.184E-01   11.85       0.0  T
   2    -15.3224402 -0.300847E-05  0.114E-01   11.85       1.0  T
   3    -15.3224419 -0.176427E-05  0.767E-03   11.85       4.3  T
   4    -15.3224420 -0.287322E-07  0.217E-03   11.85      15.4  T
   5    -15.3224420 -0.185208E-08  0.290E-04   11.85     114.8  T
   6    -15.3224420 -0.594671E-10  0.126E-04   11.85     264.3  T
     SCC iter.                  ...        0 min,  0.002 sec
     gradient                   ...        0 min,  0.000 sec
 * total energy  :   -15.2246545 Eh     change       -0.1417550E-03 Eh
   gradient norm :     0.0157958 Eh/α   predicted    -0.1264425E-03 ( -10.80%)
   displ. norm   :     0.1944320 α      lambda       -0.2975760E-03
   maximum displ.:     0.1423861 α      in ANC's #6, #7, #1, ...

........................................................................
.............................. CYCLE   97 ..............................
........................................................................

 iter      E             dE          RMSdq      gap      omega  full diag
   1    -15.3234665 -0.153235E+02  0.986E-02   11.83       0.0  T
   2    -15.3234680 -0.148989E-05  0.595E-02   11.82       1.0  T
   3    -15.3234684 -0.415339E-06  0.661E-03   11.82       5.0  T
   4    -15.3234684 -0.536521E-07  0.163E-03   11.82      20.4  T
   5    -15.3234684 -0.798758E-09  0.181E-04   11.82     184.1  T
   6    -15.3234684 -0.180584E-10  0.742E-05   11.82     449.0  T
     SCC iter.                  ...        0 min,  0.001 sec
     gradient                   ...        0 min,  0.000 sec
 * total energy  :   -15.2248451 Eh     change       -0.1906402E-03 Eh
   gradient norm :     0.0140461 Eh/α   predicted    -0.1544130E-03 ( -19.00%)
   displ. norm   :     0.3386137 α      lambda       -0.5717709E-03
   maximum displ.:     0.1946660 α      in ANC's #6, #3, #7, ...

........................................................................
.............................. CYCLE   98 ..............................
........................................................................

 iter      E             dE          RMSdq      gap      omega  full diag
   1    -15.3233471 -0.153233E+02  0.194E-01   11.88       0.0  T
   2    -15.3233511 -0.403088E-05  0.120E-01   11.88       1.0  T
   3    -15.3233532 -0.208084E-05  0.876E-03   11.86       3.8  T
   4    -15.3233532 -0.570023E-07  0.256E-03   11.87      13.0  T
   5    -15.3233532 -0.133138E-08  0.252E-04   11.87     132.5  T
   6    -15.3233532 -0.321698E-10  0.110E-04   11.87     303.8  T
     SCC iter.                  ...        0 min,  0.003 sec
     gradient                   ...        0 min,  0.001 sec
 * total energy  :   -15.2251213 Eh     change       -0.2761948E-03 Eh
   gradient norm :     0.0169150 Eh/α   predicted    -0.3186631E-03 (  15.38%)
   displ. norm   :     0.3041731 α      lambda       -0.8385517E-03
   maximum displ.:     0.2012686 α      in ANC's #3, #8, #6, ...

........................................................................
.............................. CYCLE   99 ..............................
........................................................................

 iter      E             dE          RMSdq      gap      omega  full diag
   1    -15.3296205 -0.153296E+02  0.164E-01   12.13       0.0  T
   2    -15.3296256 -0.502688E-05  0.101E-01   12.12       1.0  T
   3    -15.3296278 -0.222900E-05  0.118E-02   12.12       2.8  T
   4    -15.3296279 -0.128507E-06  0.351E-03   12.12       9.5  T
   5    -15.3296279 -0.343182E-08  0.376E-04   12.12      88.6  T
   6    -15.3296279 -0.802594E-10  0.170E-04   12.12     196.5  T
     SCC iter.                  ...        0 min,  0.000 sec
     gradient                   ...        0 min,  0.001 sec
 * total energy  :   -15.2253954 Eh     change       -0.2740738E-03 Eh
   gradient norm :     0.0193956 Eh/α   predicted    -0.4580671E-03 (  67.13%)
   displ. norm   :     0.5076465 α      lambda       -0.9511306E-03
   maximum displ.:     0.3126711 α      in ANC's #6, #8, #3, ...

........................................................................
.............................. CYCLE  100 ..............................
........................................................................

 iter      E             dE          RMSdq      gap      omega  full diag
   1    -15.3153013 -0.153153E+02  0.345E-01   11.31       0.0  T
   2    -15.3153318 -0.304386E-04  0.209E-01   11.31       1.0  T
   3    -15.3153427 -0.109537E-04  0.315E-02   11.30       1.1  T
   4    -15.3153437 -0.945435E-06  0.844E-03   11.30       3.9  T
   5    -15.3153437 -0.214148E-07  0.107E-03   11.30      31.2  T
   6    -15.3153437 -0.813513E-09  0.434E-04   11.30      76.9  T
   7    -15.3153437 -0.132651E-09  0.959E-05   11.30     347.6  T
     SCC iter.                  ...        0 min,  0.002 sec
     gradient                   ...        0 min,  0.001 sec
 * total energy  :   -15.2236369 Eh     change        0.1758537E-02 Eh
   gradient norm :     0.0616918 Eh/α   predicted    -0.5981146E-03 (-134.01%)
   displ. norm   :     0.2303074 α      lambda       -0.5279033E-02
   maximum displ.:     0.1251347 α      in ANC's #6, #8, #10, ...

........................................................................
.............................. CYCLE  101 ..............................
........................................................................

 iter      E             dE          RMSdq      gap      omega  full diag
   1    -15.3280707 -0.153281E+02  0.273E-01   11.98       0.0  T
   2    -15.3280956 -0.249033E-04  0.163E-01   11.99       1.0  T
   3    -15.3281039 -0.827784E-05  0.293E-02   11.99       1.1  T
   4    -15.3281047 -0.779107E-06  0.719E-03   11.99       4.6  T
   5    -15.3281047 -0.145521E-07  0.848E-04   11.99      39.3  T
   6    -15.3281047 -0.429321E-09  0.329E-04   11.99     101.3  T
     SCC iter.                  ...        0 min,  0.002 sec
     gradient                   ...        0 min,  0.000 sec
 * total energy  :   -15.2255950 Eh     change       -0.1958132E-02 Eh
   gradient norm :     0.0198784 Eh/α   predicted    -0.2779519E-02 (  41.95%)
   displ. norm   :     0.3480755 α      lambda       -0.2312934E-02
   maximum displ.:     0.1556539 α      in ANC's #9, #3, #7, ...

........................................................................
.............................. CYCLE  102 ..............................
........................................................................

 iter      E             dE          RMSdq      gap      omega  full diag
   1    -15.3226120 -0.153226E+02  0.284E-01   11.49       0.0  T
   2    -15.3226377 -0.256655E-04  0.172E-01   11.48       1.0  T
   3    -15.3226493 -0.116324E-04  0.285E-02   11.46       1.2  T
   4    -15.3226501 -0.748294E-06  0.100E-02   11.46       3.3  T
   5    -15.3226501 -0.373440E-07  0.113E-03   11.46      29.5  T
   6    -15.3226501 -0.736698E-09  0.475E-04   11.46      70.1  T
   7    -15.3226501 -0.170218E-09  0.777E-05   11.46     429.0  T
     SCC iter.                  ...        0 min,  0.002 sec
     gradient                   ...        0 min,  0.000 sec
 * total energy  :   -15.2225298 Eh     change        0.3065180E-02 Eh
   gradient norm :     0.0746695 Eh/α   predicted    -0.1296583E-02 (-142.30%)
   displ. norm   :     0.2409476 α      lambda       -0.6902795E-02
   maximum displ.:     0.1211839 α      in ANC's #9, #11, #5, ...

........................................................................
.............................. CYCLE  103 ..............................
........................................................................

 iter      E             dE          RMSdq      gap      omega  full diag
   1    -15.3275320 -0.153275E+02  0.219E-01   11.97       0.0  T
   2    -15.3275461 -0.141038E-04  0.133E-01   11.98       1.0  T
   3    -15.3275532 -0.708610E-05  0.209E-02   11.99       1.6  T
   4    -15.3275535 -0.352322E-06  0.706E-03   11.99       4.7  T
   5    -15.3275536 -0.217881E-07  0.859E-04   11.99      38.8  T
   6    -15.3275536 -0.512360E-09  0.361E-04   11.99      92.4  T
     SCC iter.                  ...        0 min,  0.001 sec
     gradient                   ...        0 min,  0.000 sec
 * total energy  :   -15.2260207 Eh     change       -0.3490898E-02 Eh
   gradient norm :     0.0065651 Eh/α   predicted    -0.3651767E-02 (   4.61%)
   displ. norm   :     0.1899846 α      lambda       -0.2399797E-03
   maximum displ.:     0.0809794 α      in ANC's #3, #7, #1, ...

........................................................................
.............................. CYCLE  104 ..............................
........................................................................

 iter      E             dE          RMSdq      gap      omega  full diag
   1    -15.3260817 -0.153261E+02  0.888E-02   11.92       0.0  T
   2    -15.3260826 -0.882299E-06  0.549E-02   11.91       1.0  T
   3    -15.3260831 -0.502911E-06  0.449E-03   11.91       7.4  T
   4    -15.3260831 -0.120121E-07  0.134E-03   11.91      24.8  T
   5    -15.3260831 -0.778190E-09  0.179E-04   11.91     185.9  T
   6    -15.3260831 -0.166391E-10  0.850E-05   11.91     392.3  T
     SCC iter.                  ...        0 min,  0.001 sec
     gradient                   ...        0 min,  0.000 sec
 * total energy  :   -15.2262009 Eh     change       -0.1801958E-03 Eh
   gradient norm :     0.0086493 Eh/α   predicted    -0.1243220E-03 ( -31.01%)
   displ. norm   :     0.3959672 α      lambda       -0.4786621E-03
   maximum displ.:     0.1812476 α      in ANC's #7, #3, #1, ...

........................................................................
.............................. CYCLE  105 ..............................
........................................................................

 iter      E             dE          RMSdq      gap      omega  full diag
   1    -15.3223781 -0.153224E+02  0.197E-01   11.77       0.0  T
   2    -15.3223835 -0.531190E-05  0.122E-01   11.77       1.0  T
   3    -15.3223863 -0.279284E-05  0.112E-02   11.77       3.0  T
   4    -15.3223864 -0.987276E-07  0.341E-03   11.77       9.8  T
   5    -15.3223864 -0.400836E-08  0.417E-04   11.77      79.9  T
   6    -15.3223864 -0.949019E-10  0.196E-04   11.77     169.6  T
     SCC iter.                  ...        0 min,  0.001 sec
     gradient                   ...        0 min,  0.001 sec
 * total energy  :   -15.2264803 Eh     change       -0.2793544E-03 Eh
   gradient norm :     0.0215862 Eh/α   predicted    -0.2768557E-03 (  -0.89%)
   displ. norm   :     0.1687777 α      lambda       -0.5240492E-03
   maximum displ.:     0.0837656 α      in ANC's #10, #7, #1, ...

........................................................................
.............................. CYCLE  106 ..............................
........................................................................

 iter      E             dE          RMSdq      gap      omega  full diag
   1    -15.3228993 -0.153229E+02  0.976E-02   11.84       0.0  T
   2    -15.3229006 -0.132496E-05  0.605E-02   11.84       1.0  T
   3    -15.3229013 -0.713970E-06  0.569E-03   11.84       5.9  T
   4    -15.3229014 -0.251045E-07  0.184E-03   11.84      18.1  T
   5    -15.3229014 -0.115774E-08  0.198E-04   11.84     168.7  T
   6    -15.3229014 -0.176943E-10  0.997E-05   11.84     334.2  T
     SCC iter.                  ...        0 min,  0.001 sec
     gradient                   ...        0 min,  0.001 sec
 * total energy  :   -15.2269460 Eh     change       -0.4657479E-03 Eh
   gradient norm :     0.0188998 Eh/α   predicted    -0.2694875E-03 ( -42.14%)
   displ. norm   :     0.4829837 α      lambda       -0.1968091E-02
   maximum displ.:     0.2715771 α      in ANC's #10, #7, #12, ...

........................................................................
.............................. CYCLE  107 ..............................
........................................................................

 iter      E             dE          RMSdq      gap      omega  full diag
   1    -15.3247820 -0.153248E+02  0.287E-01   11.92       0.0  T
   2    -15.3248026 -0.205464E-04  0.176E-01   11.93       1.0  T
   3    -15.3248110 -0.845217E-05  0.251E-02   11.93       1.3  T
   4    -15.3248117 -0.646330E-06  0.710E-03   11.93       4.7  T
   5    -15.3248117 -0.166181E-07  0.799E-04   11.93      41.7  T
   6    -15.3248117 -0.343210E-09  0.356E-04   11.93      93.6  T
     SCC iter.                  ...        0 min,  0.002 sec
     gradient                   ...        0 min,  0.000 sec
 * total energy  :   -15.2282092 Eh     change       -0.1263169E-02 Eh
   gradient norm :     0.0287118 Eh/α   predicted    -0.1213591E-02 (  -3.92%)
   displ. norm   :     0.5613078 α      lambda       -0.2475027E-02
   maximum displ.:     0.2458788 α      in ANC's #10, #7, #9, ...

........................................................................
.............................. CYCLE  108 ..............................
........................................................................

 iter      E             dE          RMSdq      gap      omega  full diag
   1    -15.3203229 -0.153203E+02  0.397E-01   11.85       0.0  T
   2    -15.3203485 -0.256183E-04  0.245E-01   11.81       1.0  T
   3    -15.3203596 -0.110907E-04  0.264E-02   11.77       1.3  T
   4    -15.3203603 -0.667481E-06  0.878E-03   11.78       3.8  T
   5    -15.3203603 -0.168930E-07  0.799E-04   11.78      41.7  T
   6    -15.3203603 -0.390781E-09  0.381E-04   11.78      87.5  T
     SCC iter.                  ...        0 min,  0.001 sec
     gradient                   ...        0 min,  0.001 sec
 * total energy  :   -15.2276230 Eh     change        0.5861701E-03 Eh
   gradient norm :     0.0554966 Eh/α   predicted    -0.1627414E-02 (-377.64%)
   displ. norm   :     0.1995364 α      lambda       -0.5417849E-02
   maximum displ.:     0.0948875 α      in ANC's #3, #9, #2, ...

........................................................................
.............................. CYCLE  109 ..............................
........................................................................

 iter      E             dE          RMSdq      gap      omega  full diag
   1    -15.3348055 -0.153348E+02  0.275E-01   12.48       0.0  T
   2    -15.3348312 -0.257571E-04  0.160E-01   12.49       1.0  T
   3    -15.3348383 -0.703153E-05  0.291E-02   12.50       1.1  T
   4    -15.3348390 -0.754971E-06  0.726E-03   12.50       4.6  T
   5    -15.3348390 -0.983857E-08  0.842E-04   12.50      39.6  T
   6    -15.3348390 -0.649527E-09  0.239E-04   12.50     139.7  T
     SCC iter.                  ...        0 min,  0.001 sec
     gradient                   ...        0 min,  0.000 sec
 * total energy  :   -15.2289121 Eh     change       -0.1289111E-02 Eh
   gradient norm :     0.0456285 Eh/α   predicted    -0.2816778E-02 ( 118.51%)
   displ. norm   :     0.4998494 α      lambda       -0.6376308E-02
   maximum displ.:     0.2993809 α      in ANC's #7, #11, #8, ...

........................................................................
.............................. CYCLE  110 ..............................
........................................................................

 iter      E             dE          RMSdq      gap      omega  full diag
   1    -15.2996755 -0.152997E+02  0.487E-01   10.55       0.0  T
   2    -15.2997706 -0.951135E-04  0.276E-01   10.51       1.0  T
   3    -15.2997876 -0.169425E-04  0.547E-02   10.49       1.0  T
   4    -15.2997901 -0.253753E-05  0.144E-02   10.49       2.3  T
   5    -15.2997902 -0.762919E-07  0.222E-03   10.49      15.0  T
   6    -15.2997902 -0.533101E-08  0.591E-04   10.49      56.4  T
   7    -15.2997902 -0.377190E-09  0.171E-04   10.49     194.6  T
     SCC iter.                  ...        0 min,  0.001 sec
     gradient                   ...        0 min,  0.001 sec
 * total energy  :   -15.2221301 Eh     change        0.6782073E-02 Eh
   gradient norm :     0.1083314 Eh/α   predicted    -0.3984738E-02 (-158.75%)
   displ. norm   :     0.2893228 α      lambda       -0.1683024E-01
   maximum displ.:     0.1690080 α      in ANC's #8, #7, #11, ...

........................................................................
.............................. CYCLE  111 ..............................
........................................................................

 iter      E             dE          RMSdq      gap      omega  full diag
   1    -15.3302641 -0.153303E+02  0.423E-01   11.97       0.0  T
   2    -15.3303424 -0.782986E-04  0.240E-01   11.98       1.0  T
   3    -15.3303598 -0.174110E-04  0.503E-02   12.00       1.0  T
   4    -15.3303619 -0.213706E-05  0.112E-02   12.00       3.0  T
   5    -15.3303619 -0.267328E-07  0.169E-03   12.00      19.7  T
   6    -15.3303620 -0.311408E-08  0.439E-04   12.00      75.8  T
   7    -15.3303620 -0.159128E-09  0.119E-04   12.00     279.1  T
     SCC iter.                  ...        0 min,  0.002 sec
     gradient                   ...        0 min,  0.001 sec
 * total energy  :   -15.2297099 Eh     change       -0.7579831E-02 Eh
   gradient norm :     0.0452531 Eh/α   predicted    -0.9119531E-02 (  20.31%)
   displ. norm   :     0.5059717 α      lambda       -0.5971718E-02
   maximum displ.:     0.3835365 α      in ANC's #9, #10, #5, ...

........................................................................
.............................. CYCLE  112 ..............................
........................................................................

 iter      E             dE          RMSdq      gap      omega  full diag
   1    -15.3193684 -0.153194E+02  0.397E-01   11.64       0.0  T
   2    -15.3193984 -0.299932E-04  0.242E-01   11.60       1.0  T
   3    -15.3194148 -0.163509E-04  0.318E-02   11.55       1.0  T
   4    -15.3194155 -0.683890E-06  0.108E-02   11.55       3.1  T
   5    -15.3194155 -0.519341E-07  0.109E-03   11.55      30.6  T
   6    -15.3194155 -0.768807E-09  0.484E-04   11.55      68.9  T
   7    -15.3194155 -0.126890E-09  0.980E-05   11.55     340.0  T
     SCC iter.                  ...        0 min,  0.002 sec
     gradient                   ...        0 min,  0.001 sec
 * total energy  :   -15.2253372 Eh     change        0.4372733E-02 Eh
   gradient norm :     0.1066844 Eh/α   predicted    -0.3750269E-02 (-185.76%)
   displ. norm   :     0.3093221 α      lambda       -0.1220729E-01
   maximum displ.:     0.2353667 α      in ANC's #9, #11, #7, ...

........................................................................
.............................. CYCLE  113 ..............................
........................................................................

 iter      E             dE          RMSdq      gap      omega  full diag
   1    -15.3290575 -0.153291E+02  0.269E-01   12.05       0.0  T
   2    -15.3290745 -0.170254E-04  0.162E-01   12.08       1.0  T
   3    -15.3290833 -0.879389E-05  0.242E-02   12.12       1.4  T
   4    -15.3290838 -0.432890E-06  0.842E-03   12.12       4.0  T
   5    -15.3290838 -0.341755E-07  0.847E-04   12.12      39.4  T
   6    -15.3290838 -0.418463E-09  0.360E-04   12.12      92.7  T
     SCC iter.                  ...        0 min,  0.002 sec
     gradient                   ...        0 min,  0.000 sec
 * total energy  :   -15.2309038 Eh     change       -0.5566616E-02 Eh
   gradient norm :     0.0185567 Eh/α   predicted    -0.6687637E-02 (  20.14%)
   displ. norm   :     0.3285363 α      lambda       -0.2696250E-02
   maximum displ.:     0.2449664 α      in ANC's #7, #3, #5, ...

........................................................................
.............................. CYCLE  114 ..............................
........................................................................

 iter      E             dE          RMSdq      gap      omega  full diag
   1    -15.3223884 -0.153224E+02  0.372E-01   11.78       0.0  T
   2    -15.3224387 -0.502939E-04  0.215E-01   11.80       1.0  T
   3    -15.3224499 -0.112804E-04  0.401E-02   11.80       1.0  T
   4    -15.3224514 -0.141528E-05  0.101E-02   11.78       3.3  T
   5    -15.3224514 -0.202799E-07  0.166E-03   11.78      20.1  T
   6    -15.3224514 -0.149246E-08  0.385E-04   11.78      86.5  T
   7    -15.3224514 -0.137565E-09  0.127E-04   11.78     262.5  T
     SCC iter.                  ...        0 min,  0.002 sec
     gradient                   ...        0 min,  0.000 sec
 * total energy  :   -15.2264097 Eh     change        0.4494129E-02 Eh
   gradient norm :     0.0913872 Eh/α   predicted    -0.1493639E-02 (-133.24%)
   displ. norm   :     0.2217951 α      lambda       -0.9209996E-02
   maximum displ.:     0.1671205 α      in ANC's #7, #3, #6, ...

........................................................................
.............................. CYCLE  115 ..............................
........................................................................

 iter      E             dE          RMSdq      gap      omega  full diag
   1    -15.3289717 -0.153290E+02  0.282E-01   12.14       0.0  T
   2    -15.3289979 -0.261989E-04  0.164E-01   12.13       1.0  T
   3    -15.3290049 -0.699178E-05  0.291E-02   12.14       1.1  T
   4    -15.3290057 -0.784380E-06  0.796E-03   12.15       4.2  T
   5    -15.3290057 -0.134527E-07  0.656E-04   12.15      50.8  T
   6    -15.3290057 -0.154349E-09  0.289E-04   12.15     115.2  T
     SCC iter.                  ...        0 min,  0.000 sec
     gradient                   ...        0 min,  0.001 sec
 * total energy  :   -15.2312692 Eh     change       -0.4859524E-02 Eh
   gradient norm :     0.0140851 Eh/α   predicted    -0.4831531E-02 (  -0.58%)
   displ. norm   :     0.1718463 α      lambda       -0.6515027E-03
   maximum displ.:     0.0899097 α      in ANC's #6, #4, #1, ...

........................................................................
.............................. CYCLE  116 ..............................
........................................................................

 iter      E             dE          RMSdq      gap      omega  full diag
   1    -15.3284708 -0.153285E+02  0.125E-01   12.19       0.0  T
   2    -15.3284739 -0.305557E-05  0.754E-02   12.18       1.0  T
   3    -15.3284750 -0.112708E-05  0.947E-03   12.18       3.5  T
   4    -15.3284751 -0.866131E-07  0.294E-03   12.19      11.3  T
   5    -15.3284751 -0.222419E-08  0.325E-04   12.18     102.6  T
   6    -15.3284751 -0.463487E-10  0.152E-04   12.18     219.8  T
     SCC iter.                  ...        0 min,  0.001 sec
     gradient                   ...        0 min,  0.000 sec
 * total energy  :   -15.2311835 Eh     change        0.8565026E-04 Eh
   gradient norm :     0.0258213 Eh/α   predicted    -0.3353719E-03 (-491.56%)
   displ. norm   :     0.1341049 α      lambda       -0.7619712E-03
   maximum displ.:     0.1045188 α      in ANC's #6, #7, #2, ...

........................................................................
.............................. CYCLE  117 ..............................
........................................................................

 iter      E             dE          RMSdq      gap      omega  full diag
   1    -15.3296997 -0.153297E+02  0.777E-02   12.18       0.0  T
   2    -15.3297037 -0.399676E-05  0.459E-02   12.16       1.0  T
   3    -15.3297046 -0.871055E-06  0.114E-02   12.14       2.9  T
   4    -15.3297047 -0.105685E-06  0.257E-03   12.15      13.0  T
   5    -15.3297047 -0.217759E-08  0.316E-04   12.15     105.6  T
   6    -15.3297047 -0.505818E-10  0.127E-04   12.15     262.6  T
     SCC iter.                  ...        0 min,  0.001 sec
     gradient                   ...        0 min,  0.000 sec
 * total energy  :   -15.2315803 Eh     change       -0.3967822E-03 Eh
   gradient norm :     0.0080001 Eh/α   predicted    -0.3878364E-03 (  -2.25%)
   displ. norm   :     0.1914086 α      lambda       -0.3185673E-03
   maximum displ.:     0.1199681 α      in ANC's #3, #1, #4, ...

........................................................................
.............................. CYCLE  118 ..............................
........................................................................

 iter      E             dE          RMSdq      gap      omega  full diag
   1    -15.3289424 -0.153289E+02  0.709E-02   12.15       0.0  T
   2    -15.3289469 -0.442589E-05  0.408E-02   12.18       1.0  T
   3    -15.3289475 -0.599082E-06  0.119E-02   12.20       2.8  T
   4    -15.3289475 -0.656663E-07  0.146E-03   12.20      22.9  T
   5    -15.3289475 -0.784375E-09  0.245E-04   12.20     136.2  T
   6    -15.3289475 -0.183036E-10  0.113E-04   12.20     296.0  T
     SCC iter.                  ...        0 min,  0.002 sec
     gradient                   ...        0 min,  0.000 sec
 * total energy  :   -15.2316494 Eh     change       -0.6910535E-04 Eh
   gradient norm :     0.0097753 Eh/α   predicted    -0.1651200E-03 ( 138.94%)
   displ. norm   :     0.0991855 α      lambda       -0.2782879E-03
   maximum displ.:     0.0605454 α      in ANC's #7, #1, #3, ...

........................................................................
.............................. CYCLE  119 ..............................
........................................................................

 iter      E             dE          RMSdq      gap      omega  full diag
   1    -15.3301356 -0.153301E+02  0.571E-02   12.27       0.0  T
   2    -15.3301374 -0.175881E-05  0.343E-02   12.25       1.0  T
   3    -15.3301376 -0.288822E-06  0.767E-03   12.24       4.3  T
   4    -15.3301377 -0.482687E-07  0.113E-03   12.24      29.6  T
   5    -15.3301377 -0.321945E-09  0.134E-04   12.24     248.1  T
   6    -15.3301377 -0.654410E-11  0.674E-05   12.24     494.6  T
     SCC iter.                  ...        0 min,  0.001 sec
     gradient                   ...        0 min,  0.000 sec
 * total energy  :   -15.2318570 Eh     change       -0.2075587E-03 Eh
   gradient norm :     0.0089526 Eh/α   predicted    -0.1405119E-03 ( -32.30%)
   displ. norm   :     0.1898674 α      lambda       -0.4164439E-03
   maximum displ.:     0.1135970 α      in ANC's #1, #7, #17, ...

........................................................................
.............................. CYCLE  120 ..............................
........................................................................

 iter      E             dE          RMSdq      gap      omega  full diag
   1    -15.3296441 -0.153296E+02  0.111E-01   12.21       0.0  T
   2    -15.3296482 -0.410632E-05  0.671E-02   12.20       1.0  T
   3    -15.3296490 -0.756849E-06  0.112E-02   12.18       3.0  T
   4    -15.3296491 -0.140006E-06  0.195E-03   12.19      17.1  T
   5    -15.3296491 -0.866947E-09  0.229E-04   12.19     145.7  T
   6    -15.3296491 -0.183213E-10  0.106E-04   12.19     313.5  T
     SCC iter.                  ...        0 min,  0.001 sec
     gradient                   ...        0 min,  0.000 sec
 * total energy  :   -15.2320658 Eh     change       -0.2088090E-03 Eh
   gradient norm :     0.0097908 Eh/α   predicted    -0.2157317E-03 (   3.32%)
   displ. norm   :     0.2217753 α      lambda       -0.3403795E-03
   maximum displ.:     0.1544270 α      in ANC's #1, #3, #7, ...
 * RMSD in coord.:     1.0165659 α      energy gain  -0.8207896E-02 Eh

generating ANC from exact Hessian ...
Using Lindh-Hessian (1995)
 Shifting diagonal of input Hessian by   1.032765542113385E-002
 Lowest  eigenvalues of input Hessian
    0.010000    0.000000    0.000000    0.000000    0.000000    0.000000
    0.000000    0.010571    0.010748    0.010959    0.011805    0.015187
    0.016117    0.016171    0.020609    0.022922    0.041275    0.046119
 Highest eigenvalues
    1.205872    1.220808    1.223568    1.397559    1.420796    1.437857
 

........................................................................
.............................. CYCLE  121 ..............................
........................................................................

 iter      E             dE          RMSdq      gap      omega  full diag
   1    -15.3314982 -0.153315E+02  0.878E-02   12.33       0.0  T
   2    -15.3314992 -0.938586E-06  0.538E-02   12.33       1.0  T
   3    -15.3314996 -0.421020E-06  0.510E-03   12.34       6.5  T
   4    -15.3314996 -0.248554E-07  0.172E-03   12.34      19.4  T
   5    -15.3314996 -0.115875E-08  0.206E-04   12.34     161.8  T
   6    -15.3314996 -0.182663E-10  0.968E-05   12.34     344.5  T
     SCC iter.                  ...        0 min,  0.001 sec
     gradient                   ...        0 min,  0.000 sec
 * total energy  :   -15.2323195 Eh     change       -0.2537225E-03 Eh
   gradient norm :     0.0114387 Eh/α   predicted     0.0000000E+00 (-100.00%)
   displ. norm   :     0.1919661 α      lambda       -0.7362543E-03
   maximum displ.:     0.1016464 α      in ANC's #5, #7, #2, ...

........................................................................
.............................. CYCLE  122 ..............................
........................................................................

 iter      E             dE          RMSdq      gap      omega  full diag
   1    -15.3305673 -0.153306E+02  0.125E-01   12.28       0.0  T
   2    -15.3305690 -0.168442E-05  0.773E-02   12.29       1.0  T
   3    -15.3305700 -0.107592E-05  0.634E-03   12.30       5.3  T
   4    -15.3305701 -0.171048E-07  0.158E-03   12.30      21.1  T
   5    -15.3305701 -0.183558E-08  0.323E-04   12.30     103.1  T
   6    -15.3305701 -0.460059E-10  0.136E-04   12.30     245.6  T
     SCC iter.                  ...        0 min,  0.002 sec
     gradient                   ...        0 min,  0.000 sec
 * total energy  :   -15.2328953 Eh     change       -0.5758367E-03 Eh
   gradient norm :     0.0055208 Eh/α   predicted    -0.3816920E-03 ( -33.72%)
   displ. norm   :     0.3967845 α      lambda       -0.9213956E-03
   maximum displ.:     0.2728624 α      in ANC's #5, #2, #7, ...

........................................................................
.............................. CYCLE  123 ..............................
........................................................................

 iter      E             dE          RMSdq      gap      omega  full diag
   1    -15.3254074 -0.153254E+02  0.241E-01   12.11       0.0  T
   2    -15.3254143 -0.690708E-05  0.149E-01   12.12       1.0  T
   3    -15.3254184 -0.410921E-05  0.128E-02   12.14       2.6  T
   4    -15.3254185 -0.106670E-06  0.436E-03   12.14       7.6  T
   5    -15.3254185 -0.104048E-07  0.639E-04   12.14      52.2  T
   6    -15.3254185 -0.175310E-09  0.287E-04   12.14     116.2  T
     SCC iter.                  ...        0 min,  0.001 sec
     gradient                   ...        0 min,  0.001 sec
 * total energy  :   -15.2333420 Eh     change       -0.4466296E-03 Eh
   gradient norm :     0.0205848 Eh/α   predicted    -0.5332288E-03 (  19.39%)
   displ. norm   :     0.1227207 α      lambda       -0.5122544E-03
   maximum displ.:     0.0983383 α      in ANC's #5, #6, #4, ...

........................................................................
.............................. CYCLE  124 ..............................
........................................................................

 iter      E             dE          RMSdq      gap      omega  full diag
   1    -15.3287276 -0.153287E+02  0.631E-02   12.26       0.0  T
   2    -15.3287290 -0.134627E-05  0.362E-02   12.26       1.0  T
   3    -15.3287292 -0.279314E-06  0.646E-03   12.26       5.2  T
   4    -15.3287293 -0.393300E-07  0.127E-03   12.26      26.2  T
   5    -15.3287293 -0.618426E-09  0.152E-04   12.26     219.8  T
   6    -15.3287293 -0.177938E-10  0.495E-05   12.26     673.2  T
     SCC iter.                  ...        0 min,  0.002 sec
     gradient                   ...        0 min,  0.001 sec
 * total energy  :   -15.2337242 Eh     change       -0.3821828E-03 Eh
   gradient norm :     0.0097963 Eh/α   predicted    -0.2599829E-03 ( -31.97%)
   displ. norm   :     0.3089569 α      lambda       -0.6151691E-03
   maximum displ.:     0.2815382 α      in ANC's #5, #9, #6, ...

........................................................................
.............................. CYCLE  125 ..............................
........................................................................

 iter      E             dE          RMSdq      gap      omega  full diag
   1    -15.3310778 -0.153311E+02  0.129E-01   12.38       0.0  T
   2    -15.3310805 -0.277777E-05  0.779E-02   12.39       1.0  T
   3    -15.3310814 -0.890028E-06  0.908E-03   12.39       3.7  T
   4    -15.3310815 -0.921430E-07  0.216E-03   12.40      15.4  T
   5    -15.3310815 -0.183660E-08  0.326E-04   12.39     102.2  T
   6    -15.3310815 -0.551683E-10  0.132E-04   12.39     252.8  T
     SCC iter.                  ...        0 min,  0.001 sec
     gradient                   ...        0 min,  0.001 sec
 * total energy  :   -15.2342008 Eh     change       -0.4765985E-03 Eh
   gradient norm :     0.0048248 Eh/α   predicted    -0.3369460E-03 ( -29.30%)
   displ. norm   :     0.3086797 α      lambda       -0.4364093E-03
   maximum displ.:     0.2767665 α      in ANC's #5, #9, #2, ...

........................................................................
.............................. CYCLE  126 ..............................
........................................................................

 iter      E             dE          RMSdq      gap      omega  full diag
   1    -15.3310126 -0.153310E+02  0.144E-01   12.46       0.0  T
   2    -15.3310171 -0.452696E-05  0.873E-02   12.47       1.0  T
   3    -15.3310185 -0.140258E-05  0.112E-02   12.48       3.0  T
   4    -15.3310187 -0.151421E-06  0.286E-03   12.48      11.7  T
   5    -15.3310187 -0.319764E-08  0.406E-04   12.48      82.1  T
   6    -15.3310187 -0.758291E-10  0.177E-04   12.48     188.7  T
     SCC iter.                  ...        0 min,  0.001 sec
     gradient                   ...        0 min,  0.002 sec
 * total energy  :   -15.2344730 Eh     change       -0.2722751E-03 Eh
   gradient norm :     0.0080062 Eh/α   predicted    -0.2389986E-03 ( -12.22%)
   displ. norm   :     0.1312384 α      lambda       -0.1469801E-03
   maximum displ.:     0.1081549 α      in ANC's #5, #1, #4, ...

........................................................................
.............................. CYCLE  127 ..............................
........................................................................

 iter      E             dE          RMSdq      gap      omega  full diag
   1    -15.3314433 -0.153314E+02  0.669E-02   12.49       0.0  T
   2    -15.3314445 -0.122614E-05  0.405E-02   12.49       1.0  T
   3    -15.3314448 -0.333931E-06  0.576E-03   12.50       5.8  T
   4    -15.3314449 -0.413561E-07  0.148E-03   12.50      22.6  T
   5    -15.3314449 -0.811692E-09  0.186E-04   12.50     179.4  T
   6    -15.3314449 -0.216147E-10  0.770E-05   12.50     432.9  T
     SCC iter.                  ...        0 min,  0.001 sec
     gradient                   ...        0 min,  0.001 sec
 * total energy  :   -15.2345299 Eh     change       -0.5684206E-04 Eh
   gradient norm :     0.0066035 Eh/α   predicted    -0.7475688E-04 (  31.52%)
   displ. norm   :     0.0715005 α      lambda       -0.1239695E-03
   maximum displ.:     0.0491923 α      in ANC's #6, #1, #8, ...

........................................................................
.............................. CYCLE  128 ..............................
........................................................................

 iter      E             dE          RMSdq      gap      omega  full diag
   1    -15.3327677 -0.153328E+02  0.363E-02   12.56       0.0  T
   2    -15.3327680 -0.242235E-06  0.223E-02   12.56       1.5  T
   3    -15.3327681 -0.148439E-06  0.265E-03   12.56      12.6  T
   4    -15.3327681 -0.303852E-08  0.590E-04   12.56      56.5  T
   5    -15.3327681 -0.281844E-09  0.124E-04   12.56     269.4  T
     SCC iter.                  ...        0 min,  0.001 sec
     gradient                   ...        0 min,  0.000 sec
 * total energy  :   -15.2345802 Eh     change       -0.5033472E-04 Eh
   gradient norm :     0.0041004 Eh/α   predicted    -0.6230295E-04 (  23.78%)
   displ. norm   :     0.1009856 α      lambda       -0.1141459E-03
   maximum displ.:     0.0533351 α      in ANC's #1, #8, #7, ...

........................................................................
.............................. CYCLE  129 ..............................
........................................................................

 iter      E             dE          RMSdq      gap      omega  full diag
   1    -15.3308843 -0.153309E+02  0.571E-02   12.50       0.0  T
   2    -15.3308848 -0.570951E-06  0.344E-02   12.50       1.0  T
   3    -15.3308850 -0.152031E-06  0.401E-03   12.50       8.3  T
   4    -15.3308850 -0.198719E-07  0.941E-04   12.50      35.4  T
   5    -15.3308850 -0.244189E-09  0.133E-04   12.50     251.0  T
     SCC iter.                  ...        0 min,  0.000 sec
     gradient                   ...        0 min,  0.001 sec
 * total energy  :   -15.2346387 Eh     change       -0.5846757E-04 Eh
   gradient norm :     0.0050963 Eh/α   predicted    -0.5765639E-04 (  -1.39%)
   displ. norm   :     0.0750370 α      lambda       -0.6120942E-04
   maximum displ.:     0.0442570 α      in ANC's #1, #3, #4, ...

........................................................................
.............................. CYCLE  130 ..............................
........................................................................

 iter      E             dE          RMSdq      gap      omega  full diag
   1    -15.3318377 -0.153318E+02  0.332E-02   12.55       0.0  T
   2    -15.3318378 -0.117728E-06  0.200E-02   12.55       1.7  T
   3    -15.3318378 -0.436529E-07  0.185E-03   12.55      18.0  T
   4    -15.3318378 -0.350079E-08  0.605E-04   12.55      55.1  T
   5    -15.3318378 -0.106581E-09  0.505E-05   12.55     659.4  T
     SCC iter.                  ...        0 min,  0.001 sec
     gradient                   ...        0 min,  0.000 sec
 * total energy  :   -15.2346670 Eh     change       -0.2830089E-04 Eh
   gradient norm :     0.0050407 Eh/α   predicted    -0.3077659E-04 (   8.75%)
   displ. norm   :     0.1464031 α      lambda       -0.8548445E-04
   maximum displ.:     0.0863511 α      in ANC's #3, #1, #7, ...

........................................................................
.............................. CYCLE  131 ..............................
........................................................................

 iter      E             dE          RMSdq      gap      omega  full diag
   1    -15.3313802 -0.153314E+02  0.815E-02   12.51       0.0  T
   2    -15.3313809 -0.758060E-06  0.495E-02   12.52       1.0  T
   3    -15.3313811 -0.188947E-06  0.442E-03   12.53       7.5  T
   4    -15.3313811 -0.278303E-07  0.111E-03   12.53      30.0  T
   5    -15.3313811 -0.120581E-09  0.854E-05   12.53     390.4  T
   6    -15.3313811 -0.179234E-11  0.263E-05   12.53    1268.0  T
     SCC iter.                  ...        0 min,  0.001 sec
     gradient                   ...        0 min,  0.000 sec
 * total energy  :   -15.2346766 Eh     change       -0.9630945E-05 Eh
   gradient norm :     0.0075341 Eh/α   predicted    -0.4365750E-04 ( 353.30%)
   displ. norm   :     0.0576468 α      lambda       -0.8817375E-04
   maximum displ.:     0.0353076 α      in ANC's #5, #1, #11, ...

........................................................................
.............................. CYCLE  132 ..............................
........................................................................

 iter      E             dE          RMSdq      gap      omega  full diag
   1    -15.3319685 -0.153320E+02  0.343E-02   12.57       0.0  T
   2    -15.3319688 -0.263743E-06  0.208E-02   12.57       1.6  T
   3    -15.3319688 -0.951575E-07  0.279E-03   12.57      12.0  T
   4    -15.3319689 -0.737926E-08  0.719E-04   12.57      46.3  T
   5    -15.3319689 -0.186525E-09  0.979E-05   12.57     340.4  T
     SCC iter.                  ...        0 min,  0.002 sec
     gradient                   ...        0 min,  0.000 sec
 * total energy  :   -15.2347321 Eh     change       -0.5553962E-04 Eh
   gradient norm :     0.0029869 Eh/α   predicted    -0.4423213E-04 ( -20.36%)
   displ. norm   :     0.0954398 α      lambda       -0.3758141E-04
   maximum displ.:     0.0641353 α      in ANC's #3, #1, #4, ...

........................................................................
.............................. CYCLE  133 ..............................
........................................................................

 iter      E             dE          RMSdq      gap      omega  full diag
   1    -15.3324495 -0.153324E+02  0.425E-02   12.60       0.0  T
   2    -15.3324495 -0.836162E-07  0.259E-02   12.60       1.3  T
   3    -15.3324496 -0.392754E-07  0.136E-03   12.60      24.5  T
   4    -15.3324496 -0.161339E-08  0.445E-04   12.60      74.9  T
   5    -15.3324496 -0.553779E-10  0.465E-05   12.60     717.5  T
     SCC iter.                  ...        0 min,  0.001 sec
     gradient                   ...        0 min,  0.001 sec
 * total energy  :   -15.2347616 Eh     change       -0.2943614E-04 Eh
   gradient norm :     0.0022855 Eh/α   predicted    -0.1896131E-04 ( -35.58%)
   displ. norm   :     0.2531222 α      lambda       -0.6903265E-04
   maximum displ.:     0.1717563 α      in ANC's #3, #1, #4, ...

........................................................................
.............................. CYCLE  134 ..............................
........................................................................

 iter      E             dE          RMSdq      gap      omega  full diag
   1    -15.3315696 -0.153316E+02  0.118E-01   12.56       0.0  T
   2    -15.3315703 -0.716887E-06  0.721E-02   12.57       1.0  T
   3    -15.3315706 -0.327847E-06  0.418E-03   12.57       8.0  T
   4    -15.3315706 -0.171155E-07  0.142E-03   12.57      23.5  T
   5    -15.3315706 -0.687448E-09  0.177E-04   12.57     188.3  T
   6    -15.3315706 -0.180176E-10  0.723E-05   12.57     460.8  T
     SCC iter.                  ...        0 min,  0.003 sec
     gradient                   ...        0 min,  0.000 sec
 * total energy  :   -15.2347963 Eh     change       -0.3473615E-04 Eh
   gradient norm :     0.0060935 Eh/α   predicted    -0.3672608E-04 (   5.73%)
   displ. norm   :     0.1444494 α      lambda       -0.8169035E-04
   maximum displ.:     0.0951631 α      in ANC's #3, #1, #4, ...

........................................................................
.............................. CYCLE  135 ..............................
........................................................................

 iter      E             dE          RMSdq      gap      omega  full diag
   1    -15.3328491 -0.153328E+02  0.586E-02   12.61       0.0  T
   2    -15.3328495 -0.422973E-06  0.356E-02   12.60       1.0  T
   3    -15.3328497 -0.159409E-06  0.334E-03   12.60      10.0  T
   4    -15.3328497 -0.128979E-07  0.111E-03   12.60      30.0  T
   5    -15.3328497 -0.553348E-09  0.173E-04   12.60     193.2  T
   6    -15.3328497 -0.146532E-10  0.703E-05   12.60     474.1  T
     SCC iter.                  ...        0 min,  0.001 sec
     gradient                   ...        0 min,  0.000 sec
 * total energy  :   -15.2348262 Eh     change       -0.2989162E-04 Eh
   gradient norm :     0.0040942 Eh/α   predicted    -0.4169813E-04 (  39.50%)
   displ. norm   :     0.0863228 α      lambda       -0.3088584E-04
   maximum displ.:     0.0605583 α      in ANC's #3, #1, #4, ...

........................................................................
.............................. CYCLE  136 ..............................
........................................................................

 iter      E             dE          RMSdq      gap      omega  full diag
   1    -15.3323602 -0.153324E+02  0.427E-02   12.59       0.0  T
   2    -15.3323604 -0.219810E-06  0.259E-02   12.59       1.3  T
   3    -15.3323605 -0.812897E-07  0.249E-03   12.59      13.4  T
   4    -15.3323605 -0.723636E-08  0.799E-04   12.59      41.7  T
   5    -15.3323605 -0.271962E-09  0.857E-05   12.59     388.9  T
     SCC iter.                  ...        0 min,  0.001 sec
     gradient                   ...        0 min,  0.001 sec
 * total energy  :   -15.2348427 Eh     change       -0.1651836E-04 Eh
   gradient norm :     0.0026306 Eh/α   predicted    -0.1555871E-04 (  -5.81%)
   displ. norm   :     0.0541606 α      lambda       -0.3154883E-04
   maximum displ.:     0.0284367 α      in ANC's #8, #7, #4, ...

........................................................................
.............................. CYCLE  137 ..............................
........................................................................

 iter      E             dE          RMSdq      gap      omega  full diag
   1    -15.3321585 -0.153322E+02  0.283E-02   12.58       0.0  T
   2    -15.3321587 -0.215749E-06  0.172E-02   12.58       1.9  T
   3    -15.3321587 -0.522679E-07  0.248E-03   12.58      13.4  T
   4    -15.3321587 -0.762615E-08  0.629E-04   12.58      53.0  T
   5    -15.3321587 -0.129551E-09  0.725E-05   12.58     459.9  T
     SCC iter.                  ...        0 min,  0.001 sec
     gradient                   ...        0 min,  0.000 sec
 * total energy  :   -15.2348512 Eh     change       -0.8491283E-05 Eh
   gradient norm :     0.0036799 Eh/α   predicted    -0.1582249E-04 (  86.34%)
   displ. norm   :     0.0457778 α      lambda       -0.2161953E-04
   maximum displ.:     0.0324591 α      in ANC's #3, #1, #5, ...

........................................................................
.............................. CYCLE  138 ..............................
........................................................................

 iter      E             dE          RMSdq      gap      omega  full diag
   1    -15.3324932 -0.153325E+02  0.219E-02   12.59       0.0  T
   2    -15.3324933 -0.366891E-07  0.134E-02   12.59       2.5  T
   3    -15.3324933 -0.180020E-07  0.969E-04   12.59      34.4  T
   4    -15.3324933 -0.681984E-09  0.309E-04   12.59     107.8  T
     SCC iter.                  ...        0 min,  0.001 sec
     gradient                   ...        0 min,  0.001 sec
 * total energy  :   -15.2348655 Eh     change       -0.1433378E-04 Eh
   gradient norm :     0.0024524 Eh/α   predicted    -0.1083270E-04 ( -24.43%)
   displ. norm   :     0.0843648 α      lambda       -0.1521275E-04
   maximum displ.:     0.0586465 α      in ANC's #1, #3, #8, ...

........................................................................
.............................. CYCLE  139 ..............................
........................................................................

 iter      E             dE          RMSdq      gap      omega  full diag
   1    -15.3323607 -0.153324E+02  0.325E-02   12.58       0.0  T
   2    -15.3323608 -0.700716E-07  0.197E-02   12.58       1.7  T
   3    -15.3323608 -0.222563E-07  0.133E-03   12.58      25.0  T
   4    -15.3323608 -0.234725E-08  0.394E-04   12.58      84.6  T
   5    -15.3323608 -0.436486E-10  0.464E-05   12.58     718.1  T
     SCC iter.                  ...        0 min,  0.001 sec
     gradient                   ...        0 min,  0.001 sec
 * total energy  :   -15.2348736 Eh     change       -0.8097301E-05 Eh
   gradient norm :     0.0015330 Eh/α   predicted    -0.7662136E-05 (  -5.37%)
   displ. norm   :     0.0993046 α      lambda       -0.8108571E-05
   maximum displ.:     0.0670432 α      in ANC's #3, #1, #8, ...

........................................................................
.............................. CYCLE  140 ..............................
........................................................................

 iter      E             dE          RMSdq      gap      omega  full diag
   1    -15.3320073 -0.153320E+02  0.511E-02   12.55       0.0  T
   2    -15.3320074 -0.153593E-06  0.315E-02   12.55       1.1  T
   3    -15.3320075 -0.969303E-07  0.193E-03   12.55      17.3  T
   4    -15.3320075 -0.128736E-08  0.458E-04   12.55      72.8  T
   5    -15.3320075 -0.145484E-09  0.876E-05   12.55     380.5  T
     SCC iter.                  ...        0 min,  0.001 sec
     gradient                   ...        0 min,  0.001 sec
 * total energy  :   -15.2348741 Eh     change       -0.4199386E-06 Eh
   gradient norm :     0.0037997 Eh/α   predicted    -0.4071493E-05 ( 869.54%)
   displ. norm   :     0.0451711 α      lambda       -0.1579858E-04
   maximum displ.:     0.0298054 α      in ANC's #3, #1, #4, ...

........................................................................
.............................. CYCLE  141 ..............................
........................................................................

 iter      E             dE          RMSdq      gap      omega  full diag
   1    -15.3330130 -0.153330E+02  0.253E-02   12.59       0.0  T
   2    -15.3330131 -0.533334E-07  0.152E-02   12.59       2.2  T
   3    -15.3330131 -0.191496E-07  0.122E-03   12.59      27.4  T
   4    -15.3330131 -0.157761E-08  0.368E-04   12.59      90.7  T
   5    -15.3330131 -0.419647E-10  0.308E-05   12.59    1080.5  T
     SCC iter.                  ...        0 min,  0.000 sec
     gradient                   ...        0 min,  0.001 sec
 * total energy  :   -15.2348731 Eh     change        0.9961462E-06 Eh
   gradient norm :     0.0023292 Eh/α   predicted    -0.7914139E-05 (-894.48%)
   displ. norm   :     0.0349103 α      lambda       -0.1619009E-04
   maximum displ.:     0.0150688 α      in ANC's #1, #3, #4, ...

........................................................................
.............................. CYCLE  142 ..............................
........................................................................

 iter      E             dE          RMSdq      gap      omega  full diag
   1    -15.3323863 -0.153324E+02  0.222E-02   12.57       0.0  T
   2    -15.3323864 -0.590526E-07  0.135E-02   12.57       2.5  T
   3    -15.3323864 -0.283721E-07  0.126E-03   12.57      26.4  T
   4    -15.3323864 -0.143107E-08  0.422E-04   12.57      79.0  T
   5    -15.3323864 -0.778364E-10  0.423E-05   12.57     788.0  T
     SCC iter.                  ...        0 min,  0.001 sec
     gradient                   ...        0 min,  0.000 sec
 * total energy  :   -15.2348815 Eh     change       -0.8395427E-05 Eh
   gradient norm :     0.0007848 Eh/α   predicted    -0.8106136E-05 (  -3.45%)
   displ. norm   :     0.0187103 α      lambda       -0.1440037E-05
   maximum displ.:     0.0154171 α      in ANC's #3, #1, #4, ...

........................................................................
.............................. CYCLE  143 ..............................
........................................................................

 iter      E             dE          RMSdq      gap      omega  full diag
   1    -15.3323951 -0.153324E+02  0.114E-02   12.57       0.0  T
   2    -15.3323951 -0.853204E-08  0.698E-03   12.57       4.8  T
   3    -15.3323951 -0.439386E-08  0.482E-04   12.57      69.2  T
   4    -15.3323951 -0.181913E-09  0.156E-04   12.57     213.8  T
     SCC iter.                  ...        0 min,  0.001 sec
     gradient                   ...        0 min,  0.000 sec
 * total energy  :   -15.2348830 Eh     change       -0.1486524E-05 Eh
   gradient norm :     0.0009474 Eh/α   predicted    -0.7197248E-06 ( -51.58%)
   displ. norm   :     0.0466035 α      lambda       -0.3537520E-05
   maximum displ.:     0.0348826 α      in ANC's #3, #8, #1, ...

........................................................................
.............................. CYCLE  144 ..............................
........................................................................

 iter      E             dE          RMSdq      gap      omega  full diag
   1    -15.3324274 -0.153324E+02  0.292E-02   12.57       0.0  T
   2    -15.3324274 -0.532730E-07  0.179E-02   12.57       1.9  T
   3    -15.3324274 -0.213542E-07  0.114E-03   12.57      29.1  T
   4    -15.3324274 -0.151974E-08  0.368E-04   12.57      90.6  T
   5    -15.3324274 -0.396962E-10  0.346E-05   12.57     962.0  T
     SCC iter.                  ...        0 min,  0.001 sec
     gradient                   ...        0 min,  0.000 sec
 * total energy  :   -15.2348869 Eh     change       -0.3956464E-05 Eh
   gradient norm :     0.0014364 Eh/α   predicted    -0.1770085E-05 ( -55.26%)
   displ. norm   :     0.0773589 α      lambda       -0.6569961E-05
   maximum displ.:     0.0552278 α      in ANC's #3, #8, #4, ...

........................................................................
.............................. CYCLE  145 ..............................
........................................................................

 iter      E             dE          RMSdq      gap      omega  full diag
   1    -15.3324431 -0.153324E+02  0.547E-02   12.57       0.0  T
   2    -15.3324433 -0.232700E-06  0.336E-02   12.58       1.0  T
   3    -15.3324434 -0.906473E-07  0.233E-03   12.58      14.3  T
   4    -15.3324434 -0.687046E-08  0.722E-04   12.58      46.2  T
   5    -15.3324434 -0.130854E-09  0.792E-05   12.58     420.6  T
     SCC iter.                  ...        0 min,  0.000 sec
     gradient                   ...        0 min,  0.001 sec
 * total energy  :   -15.2348936 Eh     change       -0.6648183E-05 Eh
   gradient norm :     0.0019811 Eh/α   predicted    -0.3293622E-05 ( -50.46%)
   displ. norm   :     0.0666653 α      lambda       -0.7457214E-05
   maximum displ.:     0.0364787 α      in ANC's #3, #8, #1, ...

........................................................................
.............................. CYCLE  146 ..............................
........................................................................

 iter      E             dE          RMSdq      gap      omega  full diag
   1    -15.3326722 -0.153327E+02  0.475E-02   12.59       0.0  T
   2    -15.3326725 -0.234752E-06  0.291E-02   12.59       1.1  T
   3    -15.3326726 -0.741363E-07  0.239E-03   12.59      13.9  T
   4    -15.3326726 -0.823370E-08  0.670E-04   12.59      49.7  T
   5    -15.3326726 -0.104379E-09  0.658E-05   12.59     506.9  T
     SCC iter.                  ...        0 min,  0.001 sec
     gradient                   ...        0 min,  0.001 sec
 * total energy  :   -15.2349013 Eh     change       -0.7792147E-05 Eh
   gradient norm :     0.0019973 Eh/α   predicted    -0.3734633E-05 ( -52.07%)
   displ. norm   :     0.1073672 α      lambda       -0.8495892E-05
   maximum displ.:     0.0680140 α      in ANC's #3, #8, #4, ...

........................................................................
.............................. CYCLE  147 ..............................
........................................................................

 iter      E             dE          RMSdq      gap      omega  full diag
   1    -15.3321180 -0.153321E+02  0.795E-02   12.57       0.0  T
   2    -15.3321185 -0.454991E-06  0.490E-02   12.57       1.0  T
   3    -15.3321187 -0.200318E-06  0.321E-03   12.57      10.4  T
   4    -15.3321187 -0.111103E-07  0.103E-03   12.57      32.3  T
   5    -15.3321187 -0.236707E-09  0.105E-04   12.57     317.0  T
   6    -15.3321187 -0.615863E-11  0.451E-05   12.57     739.5  T
     SCC iter.                  ...        0 min,  0.001 sec
     gradient                   ...        0 min,  0.000 sec
 * total energy  :   -15.2349060 Eh     change       -0.4681625E-05 Eh
   gradient norm :     0.0032099 Eh/α   predicted    -0.4270233E-05 (  -8.79%)
   displ. norm   :     0.0533495 α      lambda       -0.1470645E-04
   maximum displ.:     0.0485906 α      in ANC's #1, #3, #8, ...

........................................................................
.............................. CYCLE  148 ..............................
........................................................................

 iter      E             dE          RMSdq      gap      omega  full diag
   1    -15.3327814 -0.153328E+02  0.180E-02   12.60       0.0  T
   2    -15.3327814 -0.512084E-07  0.110E-02   12.60       3.0  T
   3    -15.3327815 -0.216616E-07  0.118E-03   12.60      28.2  T
   4    -15.3327815 -0.132504E-08  0.346E-04   12.60      96.3  T
   5    -15.3327815 -0.443237E-10  0.395E-05   12.60     843.6  T
     SCC iter.                  ...        0 min,  0.001 sec
     gradient                   ...        0 min,  0.000 sec
 * total energy  :   -15.2349112 Eh     change       -0.5215789E-05 Eh
   gradient norm :     0.0013484 Eh/α   predicted    -0.7375083E-05 (  41.40%)
   displ. norm   :     0.0527747 α      lambda       -0.8503606E-05
   maximum displ.:     0.0357330 α      in ANC's #3, #5, #8, ...

........................................................................
.............................. CYCLE  149 ..............................
........................................................................

 iter      E             dE          RMSdq      gap      omega  full diag
   1    -15.3324773 -0.153325E+02  0.350E-02   12.58       0.0  T
   2    -15.3324775 -0.201089E-06  0.212E-02   12.58       1.6  T
   3    -15.3324775 -0.528811E-07  0.237E-03   12.58      14.1  T
   4    -15.3324776 -0.746350E-08  0.611E-04   12.58      54.5  T
   5    -15.3324776 -0.116108E-09  0.619E-05   12.58     538.7  T
     SCC iter.                  ...        0 min,  0.001 sec
     gradient                   ...        0 min,  0.000 sec
 * total energy  :   -15.2349153 Eh     change       -0.4060980E-05 Eh
   gradient norm :     0.0031557 Eh/α   predicted    -0.4255419E-05 (   4.79%)
   displ. norm   :     0.0205500 α      lambda       -0.5498023E-05
   maximum displ.:     0.0121792 α      in ANC's #8, #3, #1, ...

........................................................................
.............................. CYCLE  150 ..............................
........................................................................

 iter      E             dE          RMSdq      gap      omega  full diag
   1    -15.3324639 -0.153325E+02  0.157E-02   12.58       0.0  T
   2    -15.3324639 -0.164219E-07  0.975E-03   12.58       3.4  T
   3    -15.3324639 -0.847392E-08  0.568E-04   12.58      58.7  T
   4    -15.3324639 -0.233848E-09  0.180E-04   12.58     185.1  T
     SCC iter.                  ...        0 min,  0.001 sec
     gradient                   ...        0 min,  0.000 sec
 * total energy  :   -15.2349196 Eh     change       -0.4330481E-05 Eh
   gradient norm :     0.0021114 Eh/α   predicted    -0.2749211E-05 ( -36.51%)
   displ. norm   :     0.0530954 α      lambda       -0.9113301E-05
   maximum displ.:     0.0282530 α      in ANC's #8, #1, #3, ...
 * RMSD in coord.:     0.6082356 α      energy gain  -0.2853857E-02 Eh

generating ANC from exact Hessian ...
Using Lindh-Hessian (1995)
 Shifting diagonal of input Hessian by   9.691795200792821E-003
 Lowest  eigenvalues of input Hessian
    0.000000    0.000000    0.000000    0.000000    0.000000    0.000000
    0.010000    0.010127    0.010369    0.014830    0.015437    0.016081
    0.016457    0.017539    0.021270    0.026014    0.041158    0.045417
 Highest eigenvalues
    1.197236    1.201391    1.208796    1.412563    1.419159    1.424290
 

........................................................................
.............................. CYCLE  151 ..............................
........................................................................

 iter      E             dE          RMSdq      gap      omega  full diag
   1    -15.3325016 -0.153325E+02  0.396E-02   12.57       0.0  T
   2    -15.3325018 -0.130480E-06  0.246E-02   12.57       1.4  T
   3    -15.3325018 -0.606854E-07  0.156E-03   12.57      21.4  T
   4    -15.3325018 -0.262313E-08  0.488E-04   12.57      68.3  T
   5    -15.3325018 -0.322338E-10  0.340E-05   12.57     980.6  T
     SCC iter.                  ...        0 min,  0.001 sec
     gradient                   ...        0 min,  0.000 sec
 * total energy  :   -15.2349258 Eh     change       -0.6114449E-05 Eh
   gradient norm :     0.0011695 Eh/α   predicted     0.0000000E+00 (-100.00%)
   displ. norm   :     0.0428380 α      lambda       -0.1254594E-04
   maximum displ.:     0.0217290 α      in ANC's #3, #4, #7, ...

........................................................................
.............................. CYCLE  152 ..............................
........................................................................

 iter      E             dE          RMSdq      gap      omega  full diag
   1    -15.3325492 -0.153325E+02  0.385E-02   12.58       0.0  T
   2    -15.3325493 -0.103114E-06  0.239E-02   12.58       1.4  T
   3    -15.3325493 -0.610572E-07  0.130E-03   12.58      25.6  T
   4    -15.3325493 -0.570315E-09  0.331E-04   12.58     100.8  T
   5    -15.3325493 -0.399396E-10  0.322E-05   12.58    1035.2  T
     SCC iter.                  ...        0 min,  0.001 sec
     gradient                   ...        0 min,  0.001 sec
 * total energy  :   -15.2349414 Eh     change       -0.1566269E-04 Eh
   gradient norm :     0.0004436 Eh/α   predicted    -0.6278386E-05 ( -59.92%)
   displ. norm   :     0.2135608 α      lambda       -0.4700561E-04
   maximum displ.:     0.1489964 α      in ANC's #3, #7, #6, ...

........................................................................
.............................. CYCLE  153 ..............................
........................................................................

 iter      E             dE          RMSdq      gap      omega  full diag
   1    -15.3310156 -0.153310E+02  0.164E-01   12.57       0.0  T
   2    -15.3310175 -0.187631E-05  0.101E-01   12.57       1.0  T
   3    -15.3310184 -0.904610E-06  0.644E-03   12.58       5.2  T
   4    -15.3310184 -0.348032E-07  0.195E-03   12.58      17.1  T
   5    -15.3310184 -0.704233E-09  0.232E-04   12.58     143.5  T
   6    -15.3310184 -0.291926E-10  0.798E-05   12.58     418.0  T
     SCC iter.                  ...        0 min,  0.003 sec
     gradient                   ...        0 min,  0.000 sec
 * total energy  :   -15.2349484 Eh     change       -0.6945268E-05 Eh
   gradient norm :     0.0074434 Eh/α   predicted    -0.2397796E-04 ( 245.24%)
   displ. norm   :     0.0594426 α      lambda       -0.5793199E-04
   maximum displ.:     0.0383291 α      in ANC's #3, #7, #6, ...

........................................................................
.............................. CYCLE  154 ..............................
........................................................................

 iter      E             dE          RMSdq      gap      omega  full diag
   1    -15.3322210 -0.153322E+02  0.517E-02   12.61       0.0  T
   2    -15.3322214 -0.367959E-06  0.316E-02   12.61       1.1  T
   3    -15.3322215 -0.126986E-06  0.321E-03   12.61      10.4  T
   4    -15.3322215 -0.115669E-07  0.814E-04   12.61      40.9  T
   5    -15.3322215 -0.119515E-09  0.876E-05   12.61     380.5  T
     SCC iter.                  ...        0 min,  0.002 sec
     gradient                   ...        0 min,  0.000 sec
 * total energy  :   -15.2349757 Eh     change       -0.2737567E-04 Eh
   gradient norm :     0.0014503 Eh/α   predicted    -0.2906699E-04 (   6.18%)
   displ. norm   :     0.0373465 α      lambda       -0.1002828E-04
   maximum displ.:     0.0209268 α      in ANC's #4, #3, #7, ...

........................................................................
.............................. CYCLE  155 ..............................
........................................................................

 iter      E             dE          RMSdq      gap      omega  full diag
   1    -15.3324411 -0.153324E+02  0.283E-02   12.62       0.0  T
   2    -15.3324412 -0.892597E-07  0.175E-02   12.62       1.9  T
   3    -15.3324412 -0.412514E-07  0.134E-03   12.62      24.9  T
   4    -15.3324412 -0.167791E-08  0.363E-04   12.62      91.9  T
   5    -15.3324412 -0.288765E-10  0.410E-05   12.62     812.4  T
     SCC iter.                  ...        0 min,  0.001 sec
     gradient                   ...        0 min,  0.001 sec
 * total energy  :   -15.2349847 Eh     change       -0.8984212E-05 Eh
   gradient norm :     0.0012270 Eh/α   predicted    -0.5015325E-05 ( -44.18%)
   displ. norm   :     0.0861929 α      lambda       -0.1085497E-04
   maximum displ.:     0.0611423 α      in ANC's #3, #4, #2, ...

........................................................................
.............................. CYCLE  156 ..............................
........................................................................

 iter      E             dE          RMSdq      gap      omega  full diag
   1    -15.3322614 -0.153323E+02  0.569E-02   12.62       0.0  T
   2    -15.3322616 -0.201458E-06  0.350E-02   12.62       1.0  T
   3    -15.3322617 -0.101465E-06  0.207E-03   12.62      16.1  T
   4    -15.3322617 -0.305389E-08  0.661E-04   12.62      50.5  T
   5    -15.3322617 -0.106281E-09  0.837E-05   12.62     398.1  T
     SCC iter.                  ...        0 min,  0.001 sec
     gradient                   ...        0 min,  0.001 sec
 * total energy  :   -15.2349961 Eh     change       -0.1134710E-04 Eh
   gradient norm :     0.0015153 Eh/α   predicted    -0.5446256E-05 ( -52.00%)
   displ. norm   :     0.0749696 α      lambda       -0.6768855E-05
   maximum displ.:     0.0575919 α      in ANC's #3, #4, #2, ...

........................................................................
.............................. CYCLE  157 ..............................
........................................................................

 iter      E             dE          RMSdq      gap      omega  full diag
   1    -15.3319520 -0.153320E+02  0.494E-02   12.62       0.0  T
   2    -15.3319521 -0.168959E-06  0.303E-02   12.62       1.1  T
   3    -15.3319522 -0.787382E-07  0.190E-03   12.62      17.5  T
   4    -15.3319522 -0.337587E-08  0.641E-04   12.62      52.0  T
   5    -15.3319522 -0.958575E-10  0.716E-05   12.62     465.3  T
     SCC iter.                  ...        0 min,  0.001 sec
     gradient                   ...        0 min,  0.001 sec
 * total energy  :   -15.2350018 Eh     change       -0.5699885E-05 Eh
   gradient norm :     0.0015243 Eh/α   predicted    -0.3392110E-05 ( -40.49%)
   displ. norm   :     0.0397168 α      lambda       -0.5413390E-05
   maximum displ.:     0.0235138 α      in ANC's #4, #3, #5, ...

........................................................................
.............................. CYCLE  158 ..............................
........................................................................

 iter      E             dE          RMSdq      gap      omega  full diag
   1    -15.3322261 -0.153322E+02  0.256E-02   12.63       0.0  T
   2    -15.3322261 -0.732827E-07  0.156E-02   12.63       2.1  T
   3    -15.3322262 -0.216931E-07  0.129E-03   12.64      25.8  T
   4    -15.3322262 -0.256268E-08  0.351E-04   12.64      94.8  T
   5    -15.3322262 -0.200604E-10  0.299E-05   12.64    1114.9  T
     SCC iter.                  ...        0 min,  0.000 sec
     gradient                   ...        0 min,  0.001 sec
 * total energy  :   -15.2350061 Eh     change       -0.4374251E-05 Eh
   gradient norm :     0.0011024 Eh/α   predicted    -0.2709458E-05 ( -38.06%)
   displ. norm   :     0.0657921 α      lambda       -0.5331037E-05
   maximum displ.:     0.0386390 α      in ANC's #4, #3, #5, ...

........................................................................
.............................. CYCLE  159 ..............................
........................................................................

 iter      E             dE          RMSdq      gap      omega  full diag
   1    -15.3319533 -0.153320E+02  0.479E-02   12.63       0.0  T
   2    -15.3319537 -0.329108E-06  0.293E-02   12.64       1.1  T
   3    -15.3319538 -0.949013E-07  0.283E-03   12.64      11.8  T
   4    -15.3319538 -0.116094E-07  0.706E-04   12.64      47.2  T
   5    -15.3319538 -0.686420E-10  0.617E-05   12.64     540.3  T
     SCC iter.                  ...        0 min,  0.001 sec
     gradient                   ...        0 min,  0.001 sec
 * total energy  :   -15.2350093 Eh     change       -0.3176389E-05 Eh
   gradient norm :     0.0022324 Eh/α   predicted    -0.2669897E-05 ( -15.95%)
   displ. norm   :     0.0190741 α      lambda       -0.7633786E-05
   maximum displ.:     0.0108576 α      in ANC's #1, #5, #6, ...

........................................................................
.............................. CYCLE  160 ..............................
........................................................................

 iter      E             dE          RMSdq      gap      omega  full diag
   1    -15.3321929 -0.153322E+02  0.108E-02   12.65       0.0  T
   2    -15.3321929 -0.964743E-08  0.658E-03   12.65       5.1  T
   3    -15.3321929 -0.404843E-08  0.504E-04   12.65      66.1  T
   4    -15.3321929 -0.196859E-09  0.150E-04   12.65     221.9  T
     SCC iter.                  ...        0 min,  0.002 sec
     gradient                   ...        0 min,  0.000 sec
 * total energy  :   -15.2350133 Eh     change       -0.4022703E-05 Eh
   gradient norm :     0.0004554 Eh/α   predicted    -0.3819560E-05 (  -5.05%)
   displ. norm   :     0.0275901 α      lambda       -0.2352390E-05
   maximum displ.:     0.0181653 α      in ANC's #1, #5, #2, ...

........................................................................
.............................. CYCLE  161 ..............................
........................................................................

 iter      E             dE          RMSdq      gap      omega  full diag
   1    -15.3323770 -0.153324E+02  0.201E-02   12.65       0.0  T
   2    -15.3323771 -0.472245E-07  0.123E-02   12.65       2.7  T
   3    -15.3323771 -0.172728E-07  0.111E-03   12.65      30.0  T
   4    -15.3323771 -0.155780E-08  0.327E-04   12.65     101.8  T
   5    -15.3323771 -0.329017E-10  0.276E-05   12.65    1207.9  T
     SCC iter.                  ...        0 min,  0.001 sec
     gradient                   ...        0 min,  0.000 sec
 * total energy  :   -15.2350158 Eh     change       -0.2411399E-05 Eh
   gradient norm :     0.0007407 Eh/α   predicted    -0.1177785E-05 ( -51.16%)
   displ. norm   :     0.0532381 α      lambda       -0.3128250E-05
   maximum displ.:     0.0332297 α      in ANC's #1, #5, #2, ...

........................................................................
.............................. CYCLE  162 ..............................
........................................................................

 iter      E             dE          RMSdq      gap      omega  full diag
   1    -15.3323206 -0.153323E+02  0.377E-02   12.65       0.0  T
   2    -15.3323207 -0.125969E-06  0.232E-02   12.65       1.4  T
   3    -15.3323207 -0.537610E-07  0.174E-03   12.65      19.1  T
   4    -15.3323208 -0.349550E-08  0.566E-04   12.65      58.9  T
   5    -15.3323208 -0.943032E-10  0.452E-05   12.65     738.0  T
     SCC iter.                  ...        0 min,  0.001 sec
     gradient                   ...        0 min,  0.001 sec
 * total energy  :   -15.2350190 Eh     change       -0.3295233E-05 Eh
   gradient norm :     0.0006828 Eh/α   predicted    -0.1565937E-05 ( -52.48%)
   displ. norm   :     0.0538443 α      lambda       -0.3024677E-05
   maximum displ.:     0.0359940 α      in ANC's #5, #1, #2, ...

........................................................................
.............................. CYCLE  163 ..............................
........................................................................

 iter      E             dE          RMSdq      gap      omega  full diag
   1    -15.3322933 -0.153323E+02  0.402E-02   12.64       0.0  T
   2    -15.3322934 -0.117104E-06  0.248E-02   12.64       1.3  T
   3    -15.3322934 -0.635001E-07  0.164E-03   12.64      20.3  T
   4    -15.3322934 -0.197161E-08  0.546E-04   12.64      61.1  T
   5    -15.3322934 -0.109571E-09  0.519E-05   12.64     642.7  T
     SCC iter.                  ...        0 min,  0.001 sec
     gradient                   ...        0 min,  0.000 sec
 * total energy  :   -15.2350215 Eh     change       -0.2472390E-05 Eh
   gradient norm :     0.0006618 Eh/α   predicted    -0.1513315E-05 ( -38.79%)
   displ. norm   :     0.0253069 α      lambda       -0.1315279E-05
   maximum displ.:     0.0179925 α      in ANC's #5, #1, #2, ...

........................................................................
.............................. CYCLE  164 ..............................
........................................................................

 iter      E             dE          RMSdq      gap      omega  full diag
   1    -15.3321582 -0.153322E+02  0.168E-02   12.64       0.0  T
   2    -15.3321582 -0.326931E-07  0.102E-02   12.64       3.3  T
   3    -15.3321582 -0.919342E-08  0.915E-04   12.64      36.4  T
   4    -15.3321582 -0.120001E-08  0.251E-04   12.64     132.7  T
     SCC iter.                  ...        0 min,  0.000 sec
     gradient                   ...        0 min,  0.001 sec
 * total energy  :   -15.2350227 Eh     change       -0.1191931E-05 Eh
   gradient norm :     0.0008037 Eh/α   predicted    -0.6579443E-06 ( -44.80%)
   displ. norm   :     0.0268506 α      lambda       -0.1724405E-05
   maximum displ.:     0.0187700 α      in ANC's #4, #3, #5, ...

........................................................................
.............................. CYCLE  165 ..............................
........................................................................

 iter      E             dE          RMSdq      gap      omega  full diag
   1    -15.3322802 -0.153323E+02  0.169E-02   12.65       0.0  T
   2    -15.3322802 -0.441697E-07  0.102E-02   12.65       3.3  T
   3    -15.3322802 -0.100603E-07  0.105E-03   12.65      31.7  T
   4    -15.3322802 -0.172032E-08  0.248E-04   12.65     134.2  T
   5    -15.3322802 -0.165983E-10  0.210E-05   12.65    1584.3  T
     SCC iter.                  ...        0 min,  0.002 sec
     gradient                   ...        0 min,  0.000 sec
 * total energy  :   -15.2350236 Eh     change       -0.8852451E-06 Eh
   gradient norm :     0.0003873 Eh/α   predicted    -0.8627341E-06 (  -2.54%)
   displ. norm   :     0.0166513 α      lambda       -0.6678640E-06
   maximum displ.:     0.0136776 α      in ANC's #5, #2, #1, ...

   *** GEOMETRY OPTIMIZATION CONVERGED AFTER 165 ITERATIONS ***

------------------------------------------------------------------------
 total energy gain   :        -0.0411893 Eh      -25.8467 kcal/mol
 total RMSD          :         1.7437809 a0        0.9228 Å
 total power (kW/mol):        -0.6554092 (step) -200.2639 (real)
------------------------------------------------------------------------

 ANCopt (total)                0 d,  0 h,  0 min,  0.540 sec
 optimizer setup                ...        0 min,  0.000 sec (  0.000%)
 model hessian                  ...        0 min,  0.004 sec (  0.741%)
 ANC generation                 ...        0 min,  0.005 sec (  0.926%)
 coordinate transformation      ...        0 min,  0.000 sec (  0.000%)
 single point calculation       ...        0 min,  0.476 sec ( 88.148%)
 optimization log               ...        0 min,  0.019 sec (  3.519%)
 hessian update                 ...        0 min,  0.011 sec (  2.037%)
 rational function              ...        0 min,  0.008 sec (  1.481%)

================
 final structure:
================
9
 xtb: 6.7.1pre (5071a88)
O            1.50389610827314       -0.38412604308150        0.84150916308915
H            1.05297375802038        0.47307921111837        0.75898636637754
H            2.23189643751661       -0.36977565888613        0.21858753970810
O           -0.43273971484156        1.51201957136216        0.15353539562745
H           -0.65597355548982        1.92835841604928       -0.67983693707011
H           -0.92153764019626        0.66858638811860        0.17746977420858
O           -1.10745542918243       -1.15997348764717        0.36227697065178
H           -0.14758525586613       -1.18357486227845        0.52752990033458
H           -1.52347470804432       -1.48459353456160        1.16241966710667
 
 Bond Distances (Angstroems)
 ---------------------------
O1-H2=0.9721         O1-H3=0.9582         H2-O1=0.9721         H3-O1=0.9582         O4-H5=0.9580         O4-H6=0.9751         
H5-O4=0.9580         H6-O4=0.9751         O7-H8=0.9743         O7-H9=0.9585         H8-O7=0.9743         H9-O7=0.9585         
 O  H  Rav=0.9660 sigma=0.0079  Rmin=0.9580  Rmax=0.9751     6
 
 selected bond angles (degree)
 --------------------
H3-O1-H2=106.50                H6-O4-H5=106.29                H9-O7-H8=106.13                
 
 selected dihedral angles (degree)
 ---------------------------------

 
 CMA Distance (Angstroems)
 ---------------------------
R(CMA):  2.4072
           -------------------------------------------------
          |                Final Singlepoint                |
           -------------------------------------------------

          ...................................................
          :                      SETUP                      :
          :.................................................:
          :  # basis functions                  18          :
          :  # atomic orbitals                  18          :
          :  # shells                           12          :
          :  # electrons                        24          :
          :  max. iterations                   250          :
          :  Hamiltonian                  GFN2-xTB          :
          :  restarted?                      false          :
          :  GBSA solvation                  false          :
          :  PC potential                    false          :
          :  electronic temp.          300.0000000     K    :
          :  accuracy                    1.0000000          :
          :  -> integral cutoff          0.2500000E+02      :
          :  -> integral neglect         0.1000000E-07      :
          :  -> SCF convergence          0.1000000E-05 Eh   :
          :  -> wf. convergence          0.1000000E-03 e    :
          :  Broyden damping             0.4000000          :
          :  net charge                          0          :
          :  unpaired electrons                  0          :
          ...................................................

 iter      E             dE          RMSdq      gap      omega  full diag
   1    -15.3322802 -0.153323E+02  0.949E-06   12.65       0.0  T
   2    -15.3322802 -0.301981E-13  0.596E-06   12.65    5597.3  T
   3    -15.3322802  0.532907E-14  0.802E-07   12.65   41567.6  T

   *** convergence criteria satisfied after 3 iterations ***

         #    Occupation            Energy/Eh            Energy/eV
      -------------------------------------------------------------
         1        2.0000           -0.6773387             -18.4313
       ...           ...                  ...                  ...
         6        2.0000           -0.5533795             -15.0582
         7        2.0000           -0.5148433             -14.0096
         8        2.0000           -0.5117999             -13.9268
         9        2.0000           -0.4999112             -13.6033
        10        2.0000           -0.4450807             -12.1113
        11        2.0000           -0.4404817             -11.9861
        12        2.0000           -0.4383866             -11.9291 (HOMO)
        13                          0.0264899               0.7208 (LUMO)
        14                          0.1316254               3.5817
        15                          0.1332933               3.6271
        16                          0.2818500               7.6695
        17                          0.2838642               7.7243
        18                          0.2893749               7.8743
      -------------------------------------------------------------
                  HL-Gap            0.4648765 Eh           12.6499 eV
             Fermi-level           -0.2059484 Eh           -5.6041 eV

 SCC (total)                   0 d,  0 h,  0 min,  0.003 sec
 SCC setup                      ...        0 min,  0.000 sec (  0.000%)
 Dispersion                     ...        0 min,  0.000 sec (  0.000%)
 classical contributions        ...        0 min,  0.000 sec (  0.000%)
 integral evaluation            ...        0 min,  0.001 sec ( 33.331%)
 iterations                     ...        0 min,  0.000 sec (  0.000%)
 molecular gradient             ...        0 min,  0.002 sec ( 66.669%)
 printout                       ...        0 min,  0.000 sec (  0.000%)

         :::::::::::::::::::::::::::::::::::::::::::::::::::::
         ::                     SUMMARY                     ::
         :::::::::::::::::::::::::::::::::::::::::::::::::::::
         :: total energy             -15.235023596727 Eh    ::
         :: gradient norm              0.000387753789 Eh/a0 ::
         :: HOMO-LUMO gap             12.649933417365 eV    ::
         ::.................................................::
         :: SCC energy               -15.332278150848 Eh    ::
         :: -> isotropic ES            0.093321884606 Eh    ::
         :: -> anisotropic ES         -0.008829003093 Eh    ::
         :: -> anisotropic XC         -0.002256215019 Eh    ::
         :: -> dispersion             -0.002008643922 Eh    ::
         :: repulsion energy           0.097254554120 Eh    ::
         :: add. restraining           0.000000000000 Eh    ::
         :: total charge               0.000000000000 e     ::
         :::::::::::::::::::::::::::::::::::::::::::::::::::::

           -------------------------------------------------
          |                Property Printout                |
           -------------------------------------------------

    * Orbital Energies and Occupations

         #    Occupation            Energy/Eh            Energy/eV
      -------------------------------------------------------------
         1        2.0000           -0.6773387             -18.4313
         2        2.0000           -0.6746081             -18.3570
         3        2.0000           -0.6722016             -18.2915
         4        2.0000           -0.5764799             -15.6868
         5        2.0000           -0.5560374             -15.1305
         6        2.0000           -0.5533795             -15.0582
         7        2.0000           -0.5148433             -14.0096
         8        2.0000           -0.5117999             -13.9268
         9        2.0000           -0.4999112             -13.6033
        10        2.0000           -0.4450807             -12.1113
        11        2.0000           -0.4404817             -11.9861
        12        2.0000           -0.4383866             -11.9291 (HOMO)
        13                          0.0264899               0.7208 (LUMO)
        14                          0.1316254               3.5817
        15                          0.1332933               3.6271
        16                          0.2818500               7.6695
        17                          0.2838642               7.7243
        18                          0.2893749               7.8743
      -------------------------------------------------------------
                  HL-Gap            0.4648765 Eh           12.6499 eV
             Fermi-level           -0.2059484 Eh           -5.6041 eV

     #   Z          covCN         q      C6AA      α(0)
     1   8 O        1.610    -0.596    25.085     6.760
     2   1 H        0.804     0.323     0.657     1.273
     3   1 H        0.806     0.279     0.787     1.393
     4   8 O        1.609    -0.605    25.315     6.791
     5   1 H        0.806     0.276     0.796     1.402
     6   1 H        0.804     0.320     0.665     1.281
     7   8 O        1.609    -0.599    25.157     6.769
     8   1 H        0.804     0.322     0.659     1.275
     9   1 H        0.806     0.280     0.783     1.390

 Mol. C6AA /au·bohr⁶  :        403.490970
 Mol. C8AA /au·bohr⁸  :       7244.145105
 Mol. α(0) /au        :         28.334710


Wiberg/Mayer (AO) data.
largest (>0.10) Wiberg bond orders for each atom

 ---------------------------------------------------------------------------
     #   Z sym  total        # sym  WBO       # sym  WBO       # sym  WBO
 ---------------------------------------------------------------------------
     1   8 O    1.856 --     3 H    0.919     2 H    0.865
     2   1 H    0.896 --     1 O    0.865
     3   1 H    0.922 --     1 O    0.919
     4   8 O    1.839 --     5 H    0.920     6 H    0.855
     5   1 H    0.924 --     4 O    0.920
     6   1 H    0.898 --     4 O    0.855
     7   8 O    1.859 --     9 H    0.919     8 H    0.858
     8   1 H    0.896 --     7 O    0.858
     9   1 H    0.921 --     7 O    0.919
 ---------------------------------------------------------------------------

Topologies differ in total number of bonds
Writing topology from bond orders to xtbtopo.mol

molecular dipole:
                 x           y           z       tot (Debye)
 q only:        0.079       0.013      -0.266
   full:        0.103       0.043      -0.403       1.064
molecular quadrupole (traceless):
                xx          xy          yy          xz          yz          zz
 q only:        1.498       0.241      -1.334      -2.838      -3.279      -0.164
  q+dip:        2.197       0.324      -1.725      -3.968      -4.694      -0.471
   full:        2.260       0.359      -1.796      -4.102      -4.970      -0.463

           -------------------------------------------------
          |                Geometry Summary                 |
           -------------------------------------------------

      molecular mass/u    :       54.0458593
   center of mass at/Å    :       -0.0100688      -0.0088985       0.4421928
  moments of inertia/u·Å² :        0.7131202E+02   0.7357146E+02   0.1416249E+03
rotational constants/cm⁻¹ :        0.2363926E+00   0.2291328E+00   0.1190301E+00

 * 6 selected distances

     #   Z          #   Z                                           value/Å
     1   8 O        2   1 H                                       0.9720813
     1   8 O        3   1 H                                       0.9582390
     4   8 O        5   1 H                                       0.9579567 (min)
     4   8 O        6   1 H                                       0.9751287 (max)
     7   8 O        8   1 H                                       0.9742774
     7   8 O        9   1 H                                       0.9584773

 * 1 distinct bonds (by element types)

   Z      Z             #   av. dist./Å        max./Å        min./Å
   1 H    8 O           6     0.9660267     0.9751287     0.9579567


optimized geometry written to: xtbopt.xyz


           -------------------------------------------------
          | TOTAL ENERGY              -15.235023596727 Eh   |
          | GRADIENT NORM               0.000387753789 Eh/α |
          | HOMO-LUMO GAP              12.649933417365 eV   |
           -------------------------------------------------

------------------------------------------------------------------------
 * finished run on 2026/07/03 at 11:14:50.148     
------------------------------------------------------------------------
 total:
 * wall-time:     0 d,  0 h,  0 min,  0.577 sec
 *  cpu-time:     0 d,  0 h,  0 min,  5.219 sec
 * ratio c/w:     9.045 speedup
 SCF:
 * wall-time:     0 d,  0 h,  0 min,  0.005 sec
 *  cpu-time:     0 d,  0 h,  0 min,  0.141 sec
 * ratio c/w:    28.124 speedup
 ANC optimizer:
 * wall-time:     0 d,  0 h,  0 min,  0.547 sec
 *  cpu-time:     0 d,  0 h,  0 min,  5.047 sec
 * ratio c/w:     9.226 speedup

normal termination of xtb
