9
(H2O)3 starting geometry, 9 atoms
O        1.60000000       0.00000000       0.00000000
H        1.60000000       0.75754080       0.58707964
H        1.60000000      -0.75754080       0.58707964
O       -0.80000000       1.38564065       0.00000000
H       -1.45604958       1.00687025       0.58707964
H       -0.14395042       1.76441104       0.58707964
O       -0.80000000      -1.38564065       0.00000000
H       -0.14395042      -1.76441104       0.58707964
H       -1.45604958      -1.00687025       0.58707964
